# Plate Description Version 3
# HALCON Version 12.0 --  Fri Jul 04 14:17:19 2014
# Description of the standard calibration plate
# used for the camera calibration in HALCON
# (generated by create_caltab)
#
#

# 27 rows x 31 columns
# Width, height of calibration plate [meter]: 0.335484, 0.251692
# Distance between mark centers [meter]: 0.0103226

# Number of marks in y-dimension (rows)
r 27

# Number of marks in x-dimension (columns)
c 31

# offset of coordinate system in z-dimension [meter] (optional):
z 0

# rim of the calibration plate (min x, max y, max x, min y) [meter]:
o -0.167741935483871 0.129118247733654 0.172903225806452 -0.129118247733654

# polarity of the marks (light or dark):
p light

# number of finder pattern marks:
f 5

# position of the finder patterns (central mark):  x y [index]
15 13
6 6
24 6
6 20
24 20

# calibration marks:  x y radius [meter]

# calibration marks at y = -0.116215 m
-0.149677419354839 -0.116215021927202 0.00258064516129032
-0.139354838709677 -0.116215021927202 0.00258064516129032
-0.129032258064516 -0.116215021927202 0.00258064516129032
-0.118709677419355 -0.116215021927202 0.00258064516129032
-0.108387096774194 -0.116215021927202 0.00258064516129032
-0.0980645161290323 -0.116215021927202 0.00258064516129032
-0.087741935483871 -0.116215021927202 0.00258064516129032
-0.0774193548387097 -0.116215021927202 0.00258064516129032
-0.0670967741935484 -0.116215021927202 0.00258064516129032
-0.0567741935483871 -0.116215021927202 0.00258064516129032
-0.0464516129032258 -0.116215021927202 0.00258064516129032
-0.0361290322580645 -0.116215021927202 0.00258064516129032
-0.0258064516129032 -0.116215021927202 0.00258064516129032
-0.0154838709677419 -0.116215021927202 0.00258064516129032
-0.00516129032258065 -0.116215021927202 0.00258064516129032
0.00516129032258065 -0.116215021927202 0.00258064516129032
0.0154838709677419 -0.116215021927202 0.00258064516129032
0.0258064516129032 -0.116215021927202 0.00258064516129032
0.0361290322580645 -0.116215021927202 0.00258064516129032
0.0464516129032258 -0.116215021927202 0.00258064516129032
0.0567741935483871 -0.116215021927202 0.00258064516129032
0.0670967741935484 -0.116215021927202 0.00258064516129032
0.0774193548387097 -0.116215021927202 0.00258064516129032
0.087741935483871 -0.116215021927202 0.00258064516129032
0.0980645161290323 -0.116215021927202 0.00258064516129032
0.108387096774194 -0.116215021927202 0.00258064516129032
0.118709677419355 -0.116215021927202 0.00258064516129032
0.129032258064516 -0.116215021927202 0.00258064516129032
0.139354838709677 -0.116215021927202 0.00258064516129032
0.149677419354839 -0.116215021927202 0.00258064516129032
0.16 -0.116215021927202 0.00258064516129032

# calibration marks at y = -0.107275 m
-0.154838709677419 -0.107275404855879 0.00258064516129032
-0.144516129032258 -0.107275404855879 0.00258064516129032
-0.134193548387097 -0.107275404855879 0.00258064516129032
-0.123870967741935 -0.107275404855879 0.00258064516129032
-0.113548387096774 -0.107275404855879 0.00258064516129032
-0.103225806451613 -0.107275404855879 0.00258064516129032
-0.0929032258064516 -0.107275404855879 0.00258064516129032
-0.0825806451612903 -0.107275404855879 0.00258064516129032
-0.072258064516129 -0.107275404855879 0.00258064516129032
-0.0619354838709677 -0.107275404855879 0.00258064516129032
-0.0516129032258065 -0.107275404855879 0.00258064516129032
-0.0412903225806452 -0.107275404855879 0.00258064516129032
-0.0309677419354839 -0.107275404855879 0.00258064516129032
-0.0206451612903226 -0.107275404855879 0.00258064516129032
-0.0103225806451613 -0.107275404855879 0.00258064516129032
0 -0.107275404855879 0.00258064516129032
0.0103225806451613 -0.107275404855879 0.00258064516129032
0.0206451612903226 -0.107275404855879 0.00258064516129032
0.0309677419354839 -0.107275404855879 0.00258064516129032
0.0412903225806452 -0.107275404855879 0.00258064516129032
0.0516129032258065 -0.107275404855879 0.00258064516129032
0.0619354838709677 -0.107275404855879 0.00258064516129032
0.072258064516129 -0.107275404855879 0.00258064516129032
0.0825806451612903 -0.107275404855879 0.00258064516129032
0.0929032258064516 -0.107275404855879 0.00258064516129032
0.103225806451613 -0.107275404855879 0.00258064516129032
0.113548387096774 -0.107275404855879 0.00258064516129032
0.123870967741935 -0.107275404855879 0.00258064516129032
0.134193548387097 -0.107275404855879 0.00258064516129032
0.144516129032258 -0.107275404855879 0.00258064516129032
0.154838709677419 -0.107275404855879 0.00258064516129032

# calibration marks at y = -0.0983358 m
-0.149677419354839 -0.0983357877845556 0.00258064516129032
-0.139354838709677 -0.0983357877845556 0.00258064516129032
-0.129032258064516 -0.0983357877845556 0.00258064516129032
-0.118709677419355 -0.0983357877845556 0.00258064516129032
-0.108387096774194 -0.0983357877845556 0.00258064516129032
-0.0980645161290323 -0.0983357877845556 0.00258064516129032
-0.087741935483871 -0.0983357877845556 0.00258064516129032
-0.0774193548387097 -0.0983357877845556 0.00258064516129032
-0.0670967741935484 -0.0983357877845556 0.00258064516129032
-0.0567741935483871 -0.0983357877845556 0.00258064516129032
-0.0464516129032258 -0.0983357877845556 0.00258064516129032
-0.0361290322580645 -0.0983357877845556 0.00258064516129032
-0.0258064516129032 -0.0983357877845556 0.00258064516129032
-0.0154838709677419 -0.0983357877845556 0.00258064516129032
-0.00516129032258065 -0.0983357877845556 0.00258064516129032
0.00516129032258065 -0.0983357877845556 0.00258064516129032
0.0154838709677419 -0.0983357877845556 0.00258064516129032
0.0258064516129032 -0.0983357877845556 0.00258064516129032
0.0361290322580645 -0.0983357877845556 0.00258064516129032
0.0464516129032258 -0.0983357877845556 0.00258064516129032
0.0567741935483871 -0.0983357877845556 0.00258064516129032
0.0670967741935484 -0.0983357877845556 0.00258064516129032
0.0774193548387097 -0.0983357877845556 0.00258064516129032
0.087741935483871 -0.0983357877845556 0.00258064516129032
0.0980645161290323 -0.0983357877845556 0.00258064516129032
0.108387096774194 -0.0983357877845556 0.00258064516129032
0.118709677419355 -0.0983357877845556 0.00258064516129032
0.129032258064516 -0.0983357877845556 0.00258064516129032
0.139354838709677 -0.0983357877845556 0.00258064516129032
0.149677419354839 -0.0983357877845556 0.00258064516129032
0.16 -0.0983357877845556 0.00258064516129032

# calibration marks at y = -0.0893962 m
-0.154838709677419 -0.0893961707132324 0.00258064516129032
-0.144516129032258 -0.0893961707132324 0.00258064516129032
-0.134193548387097 -0.0893961707132324 0.00258064516129032
-0.123870967741935 -0.0893961707132324 0.00258064516129032
-0.113548387096774 -0.0893961707132324 0.00258064516129032
-0.103225806451613 -0.0893961707132324 0.00258064516129032
-0.0929032258064516 -0.0893961707132324 0.00258064516129032
-0.0825806451612903 -0.0893961707132324 0.00258064516129032
-0.072258064516129 -0.0893961707132324 0.00258064516129032
-0.0619354838709677 -0.0893961707132324 0.00258064516129032
-0.0516129032258065 -0.0893961707132324 0.00258064516129032
-0.0412903225806452 -0.0893961707132324 0.00258064516129032
-0.0309677419354839 -0.0893961707132324 0.00258064516129032
-0.0206451612903226 -0.0893961707132324 0.00258064516129032
-0.0103225806451613 -0.0893961707132324 0.00258064516129032
0 -0.0893961707132324 0.00258064516129032
0.0103225806451613 -0.0893961707132324 0.00258064516129032
0.0206451612903226 -0.0893961707132324 0.00258064516129032
0.0309677419354839 -0.0893961707132324 0.00258064516129032
0.0412903225806452 -0.0893961707132324 0.00258064516129032
0.0516129032258065 -0.0893961707132324 0.00258064516129032
0.0619354838709677 -0.0893961707132324 0.00258064516129032
0.072258064516129 -0.0893961707132324 0.00258064516129032
0.0825806451612903 -0.0893961707132324 0.00258064516129032
0.0929032258064516 -0.0893961707132324 0.00258064516129032
0.103225806451613 -0.0893961707132324 0.00258064516129032
0.113548387096774 -0.0893961707132324 0.00258064516129032
0.123870967741935 -0.0893961707132324 0.00258064516129032
0.134193548387097 -0.0893961707132324 0.00258064516129032
0.144516129032258 -0.0893961707132324 0.00258064516129032
0.154838709677419 -0.0893961707132324 0.00258064516129032

# calibration marks at y = -0.0804566 m
-0.149677419354839 -0.0804565536419091 0.00258064516129032
-0.139354838709677 -0.0804565536419091 0.00258064516129032
-0.129032258064516 -0.0804565536419091 0.00258064516129032
-0.118709677419355 -0.0804565536419091 0.00258064516129032
-0.108387096774194 -0.0804565536419091 0.00258064516129032
-0.0980645161290323 -0.0804565536419091 0.00258064516129032
-0.087741935483871 -0.0804565536419091 0.00258064516129032
-0.0774193548387097 -0.0804565536419091 0.00258064516129032
-0.0670967741935484 -0.0804565536419091 0.00258064516129032
-0.0567741935483871 -0.0804565536419091 0.00258064516129032
-0.0464516129032258 -0.0804565536419091 0.00258064516129032
-0.0361290322580645 -0.0804565536419091 0.00258064516129032
-0.0258064516129032 -0.0804565536419091 0.00258064516129032
-0.0154838709677419 -0.0804565536419091 0.00258064516129032
-0.00516129032258065 -0.0804565536419091 0.00258064516129032
0.00516129032258065 -0.0804565536419091 0.00258064516129032
0.0154838709677419 -0.0804565536419091 0.00258064516129032
0.0258064516129032 -0.0804565536419091 0.00258064516129032
0.0361290322580645 -0.0804565536419091 0.00258064516129032
0.0464516129032258 -0.0804565536419091 0.00258064516129032
0.0567741935483871 -0.0804565536419091 0.00258064516129032
0.0670967741935484 -0.0804565536419091 0.00258064516129032
0.0774193548387097 -0.0804565536419091 0.00258064516129032
0.087741935483871 -0.0804565536419091 0.00258064516129032
0.0980645161290323 -0.0804565536419091 0.00258064516129032
0.108387096774194 -0.0804565536419091 0.00258064516129032
0.118709677419355 -0.0804565536419091 0.00258064516129032
0.129032258064516 -0.0804565536419091 0.00258064516129032
0.139354838709677 -0.0804565536419091 0.00258064516129032
0.149677419354839 -0.0804565536419091 0.00258064516129032
0.16 -0.0804565536419091 0.00258064516129032

# calibration marks at y = -0.0715169 m
-0.154838709677419 -0.0715169365705859 0.00258064516129032
-0.144516129032258 -0.0715169365705859 0.00258064516129032
-0.134193548387097 -0.0715169365705859 0.00258064516129032
-0.123870967741935 -0.0715169365705859 0.00258064516129032
-0.113548387096774 -0.0715169365705859 0.00258064516129032
-0.103225806451613 -0.0715169365705859 0.00258064516129032
-0.0929032258064516 -0.0715169365705859 0.00258064516129032
-0.0825806451612903 -0.0715169365705859 0.00258064516129032
-0.072258064516129 -0.0715169365705859 0.00258064516129032
-0.0619354838709677 -0.0715169365705859 0.00258064516129032
-0.0516129032258065 -0.0715169365705859 0.00258064516129032
-0.0412903225806452 -0.0715169365705859 0.00258064516129032
-0.0309677419354839 -0.0715169365705859 0.00258064516129032
-0.0206451612903226 -0.0715169365705859 0.00258064516129032
-0.0103225806451613 -0.0715169365705859 0.00258064516129032
0 -0.0715169365705859 0.00258064516129032
0.0103225806451613 -0.0715169365705859 0.00258064516129032
0.0206451612903226 -0.0715169365705859 0.00258064516129032
0.0309677419354839 -0.0715169365705859 0.00258064516129032
0.0412903225806452 -0.0715169365705859 0.00258064516129032
0.0516129032258065 -0.0715169365705859 0.00258064516129032
0.0619354838709677 -0.0715169365705859 0.00258064516129032
0.072258064516129 -0.0715169365705859 0.00258064516129032
0.0825806451612903 -0.0715169365705859 0.00258064516129032
0.0929032258064516 -0.0715169365705859 0.00258064516129032
0.103225806451613 -0.0715169365705859 0.00258064516129032
0.113548387096774 -0.0715169365705859 0.00258064516129032
0.123870967741935 -0.0715169365705859 0.00258064516129032
0.134193548387097 -0.0715169365705859 0.00258064516129032
0.144516129032258 -0.0715169365705859 0.00258064516129032
0.154838709677419 -0.0715169365705859 0.00258064516129032

# calibration marks at y = -0.0625773 m
-0.149677419354839 -0.0625773194992627 0.00258064516129032
-0.139354838709677 -0.0625773194992627 0.00258064516129032
-0.129032258064516 -0.0625773194992627 0.00258064516129032
-0.118709677419355 -0.0625773194992627 0.00258064516129032
-0.108387096774194 -0.0625773194992627 0.00258064516129032
-0.0980645161290323 -0.0625773194992627 0.00258064516129032
-0.087741935483871 -0.0625773194992627 0.00258064516129032
-0.0774193548387097 -0.0625773194992627 0.00258064516129032
-0.0670967741935484 -0.0625773194992627 0.00258064516129032
-0.0567741935483871 -0.0625773194992627 0.00258064516129032
-0.0464516129032258 -0.0625773194992627 0.00258064516129032
-0.0361290322580645 -0.0625773194992627 0.00258064516129032
-0.0258064516129032 -0.0625773194992627 0.00258064516129032
-0.0154838709677419 -0.0625773194992627 0.00258064516129032
-0.00516129032258065 -0.0625773194992627 0.00258064516129032
0.00516129032258065 -0.0625773194992627 0.00258064516129032
0.0154838709677419 -0.0625773194992627 0.00258064516129032
0.0258064516129032 -0.0625773194992627 0.00258064516129032
0.0361290322580645 -0.0625773194992627 0.00258064516129032
0.0464516129032258 -0.0625773194992627 0.00258064516129032
0.0567741935483871 -0.0625773194992627 0.00258064516129032
0.0670967741935484 -0.0625773194992627 0.00258064516129032
0.0774193548387097 -0.0625773194992627 0.00258064516129032
0.087741935483871 -0.0625773194992627 0.00258064516129032
0.0980645161290323 -0.0625773194992627 0.00258064516129032
0.108387096774194 -0.0625773194992627 0.00258064516129032
0.118709677419355 -0.0625773194992627 0.00258064516129032
0.129032258064516 -0.0625773194992627 0.00258064516129032
0.139354838709677 -0.0625773194992627 0.00258064516129032
0.149677419354839 -0.0625773194992627 0.00258064516129032
0.16 -0.0625773194992627 0.00258064516129032

# calibration marks at y = -0.0536377 m
-0.154838709677419 -0.0536377024279394 0.00258064516129032
-0.144516129032258 -0.0536377024279394 0.00258064516129032
-0.134193548387097 -0.0536377024279394 0.00258064516129032
-0.123870967741935 -0.0536377024279394 0.00258064516129032
-0.113548387096774 -0.0536377024279394 0.00258064516129032
-0.103225806451613 -0.0536377024279394 0.00258064516129032
-0.0929032258064516 -0.0536377024279394 0.00258064516129032
-0.0825806451612903 -0.0536377024279394 0.00258064516129032
-0.072258064516129 -0.0536377024279394 0.00258064516129032
-0.0619354838709677 -0.0536377024279394 0.00258064516129032
-0.0516129032258065 -0.0536377024279394 0.00258064516129032
-0.0412903225806452 -0.0536377024279394 0.00258064516129032
-0.0309677419354839 -0.0536377024279394 0.00258064516129032
-0.0206451612903226 -0.0536377024279394 0.00258064516129032
-0.0103225806451613 -0.0536377024279394 0.00258064516129032
0 -0.0536377024279394 0.00258064516129032
0.0103225806451613 -0.0536377024279394 0.00258064516129032
0.0206451612903226 -0.0536377024279394 0.00258064516129032
0.0309677419354839 -0.0536377024279394 0.00258064516129032
0.0412903225806452 -0.0536377024279394 0.00258064516129032
0.0516129032258065 -0.0536377024279394 0.00258064516129032
0.0619354838709677 -0.0536377024279394 0.00258064516129032
0.072258064516129 -0.0536377024279394 0.00258064516129032
0.0825806451612903 -0.0536377024279394 0.00258064516129032
0.0929032258064516 -0.0536377024279394 0.00258064516129032
0.103225806451613 -0.0536377024279394 0.00258064516129032
0.113548387096774 -0.0536377024279394 0.00258064516129032
0.123870967741935 -0.0536377024279394 0.00258064516129032
0.134193548387097 -0.0536377024279394 0.00258064516129032
0.144516129032258 -0.0536377024279394 0.00258064516129032
0.154838709677419 -0.0536377024279394 0.00258064516129032

# calibration marks at y = -0.0446981 m
-0.149677419354839 -0.0446980853566162 0.00258064516129032
-0.139354838709677 -0.0446980853566162 0.00258064516129032
-0.129032258064516 -0.0446980853566162 0.00258064516129032
-0.118709677419355 -0.0446980853566162 0.00258064516129032
-0.108387096774194 -0.0446980853566162 0.00258064516129032
-0.0980645161290323 -0.0446980853566162 0.00258064516129032
-0.087741935483871 -0.0446980853566162 0.00258064516129032
-0.0774193548387097 -0.0446980853566162 0.00258064516129032
-0.0670967741935484 -0.0446980853566162 0.00258064516129032
-0.0567741935483871 -0.0446980853566162 0.00258064516129032
-0.0464516129032258 -0.0446980853566162 0.00258064516129032
-0.0361290322580645 -0.0446980853566162 0.00258064516129032
-0.0258064516129032 -0.0446980853566162 0.00258064516129032
-0.0154838709677419 -0.0446980853566162 0.00258064516129032
-0.00516129032258065 -0.0446980853566162 0.00258064516129032
0.00516129032258065 -0.0446980853566162 0.00258064516129032
0.0154838709677419 -0.0446980853566162 0.00258064516129032
0.0258064516129032 -0.0446980853566162 0.00258064516129032
0.0361290322580645 -0.0446980853566162 0.00258064516129032
0.0464516129032258 -0.0446980853566162 0.00258064516129032
0.0567741935483871 -0.0446980853566162 0.00258064516129032
0.0670967741935484 -0.0446980853566162 0.00258064516129032
0.0774193548387097 -0.0446980853566162 0.00258064516129032
0.087741935483871 -0.0446980853566162 0.00258064516129032
0.0980645161290323 -0.0446980853566162 0.00258064516129032
0.108387096774194 -0.0446980853566162 0.00258064516129032
0.118709677419355 -0.0446980853566162 0.00258064516129032
0.129032258064516 -0.0446980853566162 0.00258064516129032
0.139354838709677 -0.0446980853566162 0.00258064516129032
0.149677419354839 -0.0446980853566162 0.00258064516129032
0.16 -0.0446980853566162 0.00258064516129032

# calibration marks at y = -0.0357585 m
-0.154838709677419 -0.035758468285293 0.00258064516129032
-0.144516129032258 -0.035758468285293 0.00258064516129032
-0.134193548387097 -0.035758468285293 0.00258064516129032
-0.123870967741935 -0.035758468285293 0.00258064516129032
-0.113548387096774 -0.035758468285293 0.00258064516129032
-0.103225806451613 -0.035758468285293 0.00258064516129032
-0.0929032258064516 -0.035758468285293 0.00258064516129032
-0.0825806451612903 -0.035758468285293 0.00258064516129032
-0.072258064516129 -0.035758468285293 0.00258064516129032
-0.0619354838709677 -0.035758468285293 0.00258064516129032
-0.0516129032258065 -0.035758468285293 0.00258064516129032
-0.0412903225806452 -0.035758468285293 0.00258064516129032
-0.0309677419354839 -0.035758468285293 0.00258064516129032
-0.0206451612903226 -0.035758468285293 0.00258064516129032
-0.0103225806451613 -0.035758468285293 0.00258064516129032
0 -0.035758468285293 0.00258064516129032
0.0103225806451613 -0.035758468285293 0.00258064516129032
0.0206451612903226 -0.035758468285293 0.00258064516129032
0.0309677419354839 -0.035758468285293 0.00258064516129032
0.0412903225806452 -0.035758468285293 0.00258064516129032
0.0516129032258065 -0.035758468285293 0.00258064516129032
0.0619354838709677 -0.035758468285293 0.00258064516129032
0.072258064516129 -0.035758468285293 0.00258064516129032
0.0825806451612903 -0.035758468285293 0.00258064516129032
0.0929032258064516 -0.035758468285293 0.00258064516129032
0.103225806451613 -0.035758468285293 0.00258064516129032
0.113548387096774 -0.035758468285293 0.00258064516129032
0.123870967741935 -0.035758468285293 0.00258064516129032
0.134193548387097 -0.035758468285293 0.00258064516129032
0.144516129032258 -0.035758468285293 0.00258064516129032
0.154838709677419 -0.035758468285293 0.00258064516129032

# calibration marks at y = -0.0268189 m
-0.149677419354839 -0.0268188512139697 0.00258064516129032
-0.139354838709677 -0.0268188512139697 0.00258064516129032
-0.129032258064516 -0.0268188512139697 0.00258064516129032
-0.118709677419355 -0.0268188512139697 0.00258064516129032
-0.108387096774194 -0.0268188512139697 0.00258064516129032
-0.0980645161290323 -0.0268188512139697 0.00258064516129032
-0.087741935483871 -0.0268188512139697 0.00258064516129032
-0.0774193548387097 -0.0268188512139697 0.00258064516129032
-0.0670967741935484 -0.0268188512139697 0.00258064516129032
-0.0567741935483871 -0.0268188512139697 0.00258064516129032
-0.0464516129032258 -0.0268188512139697 0.00258064516129032
-0.0361290322580645 -0.0268188512139697 0.00258064516129032
-0.0258064516129032 -0.0268188512139697 0.00258064516129032
-0.0154838709677419 -0.0268188512139697 0.00258064516129032
-0.00516129032258065 -0.0268188512139697 0.00258064516129032
0.00516129032258065 -0.0268188512139697 0.00258064516129032
0.0154838709677419 -0.0268188512139697 0.00258064516129032
0.0258064516129032 -0.0268188512139697 0.00258064516129032
0.0361290322580645 -0.0268188512139697 0.00258064516129032
0.0464516129032258 -0.0268188512139697 0.00258064516129032
0.0567741935483871 -0.0268188512139697 0.00258064516129032
0.0670967741935484 -0.0268188512139697 0.00258064516129032
0.0774193548387097 -0.0268188512139697 0.00258064516129032
0.087741935483871 -0.0268188512139697 0.00258064516129032
0.0980645161290323 -0.0268188512139697 0.00258064516129032
0.108387096774194 -0.0268188512139697 0.00258064516129032
0.118709677419355 -0.0268188512139697 0.00258064516129032
0.129032258064516 -0.0268188512139697 0.00258064516129032
0.139354838709677 -0.0268188512139697 0.00258064516129032
0.149677419354839 -0.0268188512139697 0.00258064516129032
0.16 -0.0268188512139697 0.00258064516129032

# calibration marks at y = -0.0178792 m
-0.154838709677419 -0.0178792341426465 0.00258064516129032
-0.144516129032258 -0.0178792341426465 0.00258064516129032
-0.134193548387097 -0.0178792341426465 0.00258064516129032
-0.123870967741935 -0.0178792341426465 0.00258064516129032
-0.113548387096774 -0.0178792341426465 0.00258064516129032
-0.103225806451613 -0.0178792341426465 0.00258064516129032
-0.0929032258064516 -0.0178792341426465 0.00258064516129032
-0.0825806451612903 -0.0178792341426465 0.00258064516129032
-0.072258064516129 -0.0178792341426465 0.00258064516129032
-0.0619354838709677 -0.0178792341426465 0.00258064516129032
-0.0516129032258065 -0.0178792341426465 0.00258064516129032
-0.0412903225806452 -0.0178792341426465 0.00258064516129032
-0.0309677419354839 -0.0178792341426465 0.00258064516129032
-0.0206451612903226 -0.0178792341426465 0.00258064516129032
-0.0103225806451613 -0.0178792341426465 0.00258064516129032
0 -0.0178792341426465 0.00258064516129032
0.0103225806451613 -0.0178792341426465 0.00258064516129032
0.0206451612903226 -0.0178792341426465 0.00258064516129032
0.0309677419354839 -0.0178792341426465 0.00258064516129032
0.0412903225806452 -0.0178792341426465 0.00258064516129032
0.0516129032258065 -0.0178792341426465 0.00258064516129032
0.0619354838709677 -0.0178792341426465 0.00258064516129032
0.072258064516129 -0.0178792341426465 0.00258064516129032
0.0825806451612903 -0.0178792341426465 0.00258064516129032
0.0929032258064516 -0.0178792341426465 0.00258064516129032
0.103225806451613 -0.0178792341426465 0.00258064516129032
0.113548387096774 -0.0178792341426465 0.00258064516129032
0.123870967741935 -0.0178792341426465 0.00258064516129032
0.134193548387097 -0.0178792341426465 0.00258064516129032
0.144516129032258 -0.0178792341426465 0.00258064516129032
0.154838709677419 -0.0178792341426465 0.00258064516129032

# calibration marks at y = -0.00893962 m
-0.149677419354839 -0.00893961707132324 0.00258064516129032
-0.139354838709677 -0.00893961707132324 0.00258064516129032
-0.129032258064516 -0.00893961707132324 0.00258064516129032
-0.118709677419355 -0.00893961707132324 0.00258064516129032
-0.108387096774194 -0.00893961707132324 0.00258064516129032
-0.0980645161290323 -0.00893961707132324 0.00258064516129032
-0.087741935483871 -0.00893961707132324 0.00258064516129032
-0.0774193548387097 -0.00893961707132324 0.00258064516129032
-0.0670967741935484 -0.00893961707132324 0.00258064516129032
-0.0567741935483871 -0.00893961707132324 0.00258064516129032
-0.0464516129032258 -0.00893961707132324 0.00258064516129032
-0.0361290322580645 -0.00893961707132324 0.00258064516129032
-0.0258064516129032 -0.00893961707132324 0.00258064516129032
-0.0154838709677419 -0.00893961707132324 0.00258064516129032
-0.00516129032258065 -0.00893961707132324 0.00258064516129032
0.00516129032258065 -0.00893961707132324 0.00258064516129032
0.0154838709677419 -0.00893961707132324 0.00258064516129032
0.0258064516129032 -0.00893961707132324 0.00258064516129032
0.0361290322580645 -0.00893961707132324 0.00258064516129032
0.0464516129032258 -0.00893961707132324 0.00258064516129032
0.0567741935483871 -0.00893961707132324 0.00258064516129032
0.0670967741935484 -0.00893961707132324 0.00258064516129032
0.0774193548387097 -0.00893961707132324 0.00258064516129032
0.087741935483871 -0.00893961707132324 0.00258064516129032
0.0980645161290323 -0.00893961707132324 0.00258064516129032
0.108387096774194 -0.00893961707132324 0.00258064516129032
0.118709677419355 -0.00893961707132324 0.00258064516129032
0.129032258064516 -0.00893961707132324 0.00258064516129032
0.139354838709677 -0.00893961707132324 0.00258064516129032
0.149677419354839 -0.00893961707132324 0.00258064516129032
0.16 -0.00893961707132324 0.00258064516129032

# calibration marks at y = 0 m
-0.154838709677419 0 0.00258064516129032
-0.144516129032258 0 0.00258064516129032
-0.134193548387097 0 0.00258064516129032
-0.123870967741935 0 0.00258064516129032
-0.113548387096774 0 0.00258064516129032
-0.103225806451613 0 0.00258064516129032
-0.0929032258064516 0 0.00258064516129032
-0.0825806451612903 0 0.00258064516129032
-0.072258064516129 0 0.00258064516129032
-0.0619354838709677 0 0.00258064516129032
-0.0516129032258065 0 0.00258064516129032
-0.0412903225806452 0 0.00258064516129032
-0.0309677419354839 0 0.00258064516129032
-0.0206451612903226 0 0.00258064516129032
-0.0103225806451613 0 0.00258064516129032
0 0 0.00258064516129032
0.0103225806451613 0 0.00258064516129032
0.0206451612903226 0 0.00258064516129032
0.0309677419354839 0 0.00258064516129032
0.0412903225806452 0 0.00258064516129032
0.0516129032258065 0 0.00258064516129032
0.0619354838709677 0 0.00258064516129032
0.072258064516129 0 0.00258064516129032
0.0825806451612903 0 0.00258064516129032
0.0929032258064516 0 0.00258064516129032
0.103225806451613 0 0.00258064516129032
0.113548387096774 0 0.00258064516129032
0.123870967741935 0 0.00258064516129032
0.134193548387097 0 0.00258064516129032
0.144516129032258 0 0.00258064516129032
0.154838709677419 0 0.00258064516129032

# calibration marks at y = 0.00893962 m
-0.149677419354839 0.00893961707132324 0.00258064516129032
-0.139354838709677 0.00893961707132324 0.00258064516129032
-0.129032258064516 0.00893961707132324 0.00258064516129032
-0.118709677419355 0.00893961707132324 0.00258064516129032
-0.108387096774194 0.00893961707132324 0.00258064516129032
-0.0980645161290323 0.00893961707132324 0.00258064516129032
-0.087741935483871 0.00893961707132324 0.00258064516129032
-0.0774193548387097 0.00893961707132324 0.00258064516129032
-0.0670967741935484 0.00893961707132324 0.00258064516129032
-0.0567741935483871 0.00893961707132324 0.00258064516129032
-0.0464516129032258 0.00893961707132324 0.00258064516129032
-0.0361290322580645 0.00893961707132324 0.00258064516129032
-0.0258064516129032 0.00893961707132324 0.00258064516129032
-0.0154838709677419 0.00893961707132324 0.00258064516129032
-0.00516129032258065 0.00893961707132324 0.00258064516129032
0.00516129032258065 0.00893961707132324 0.00258064516129032
0.0154838709677419 0.00893961707132324 0.00258064516129032
0.0258064516129032 0.00893961707132324 0.00258064516129032
0.0361290322580645 0.00893961707132324 0.00258064516129032
0.0464516129032258 0.00893961707132324 0.00258064516129032
0.0567741935483871 0.00893961707132324 0.00258064516129032
0.0670967741935484 0.00893961707132324 0.00258064516129032
0.0774193548387097 0.00893961707132324 0.00258064516129032
0.087741935483871 0.00893961707132324 0.00258064516129032
0.0980645161290323 0.00893961707132324 0.00258064516129032
0.108387096774194 0.00893961707132324 0.00258064516129032
0.118709677419355 0.00893961707132324 0.00258064516129032
0.129032258064516 0.00893961707132324 0.00258064516129032
0.139354838709677 0.00893961707132324 0.00258064516129032
0.149677419354839 0.00893961707132324 0.00258064516129032
0.16 0.00893961707132324 0.00258064516129032

# calibration marks at y = 0.0178792 m
-0.154838709677419 0.0178792341426465 0.00258064516129032
-0.144516129032258 0.0178792341426465 0.00258064516129032
-0.134193548387097 0.0178792341426465 0.00258064516129032
-0.123870967741935 0.0178792341426465 0.00258064516129032
-0.113548387096774 0.0178792341426465 0.00258064516129032
-0.103225806451613 0.0178792341426465 0.00258064516129032
-0.0929032258064516 0.0178792341426465 0.00258064516129032
-0.0825806451612903 0.0178792341426465 0.00258064516129032
-0.072258064516129 0.0178792341426465 0.00258064516129032
-0.0619354838709677 0.0178792341426465 0.00258064516129032
-0.0516129032258065 0.0178792341426465 0.00258064516129032
-0.0412903225806452 0.0178792341426465 0.00258064516129032
-0.0309677419354839 0.0178792341426465 0.00258064516129032
-0.0206451612903226 0.0178792341426465 0.00258064516129032
-0.0103225806451613 0.0178792341426465 0.00258064516129032
0 0.0178792341426465 0.00258064516129032
0.0103225806451613 0.0178792341426465 0.00258064516129032
0.0206451612903226 0.0178792341426465 0.00258064516129032
0.0309677419354839 0.0178792341426465 0.00258064516129032
0.0412903225806452 0.0178792341426465 0.00258064516129032
0.0516129032258065 0.0178792341426465 0.00258064516129032
0.0619354838709677 0.0178792341426465 0.00258064516129032
0.072258064516129 0.0178792341426465 0.00258064516129032
0.0825806451612903 0.0178792341426465 0.00258064516129032
0.0929032258064516 0.0178792341426465 0.00258064516129032
0.103225806451613 0.0178792341426465 0.00258064516129032
0.113548387096774 0.0178792341426465 0.00258064516129032
0.123870967741935 0.0178792341426465 0.00258064516129032
0.134193548387097 0.0178792341426465 0.00258064516129032
0.144516129032258 0.0178792341426465 0.00258064516129032
0.154838709677419 0.0178792341426465 0.00258064516129032

# calibration marks at y = 0.0268189 m