# Plate Description Version 3
# HALCON Version 13.0 --  Thu Mar 30 12:08:07 2017
# Description of the standard calibration plate
# used for the camera calibration in HALCON
# (generated by create_caltab)
#
#

# 27 rows x 31 columns
# Width, height of calibration plate [meter]: 0.167742, 0.125846
# Distance between mark centers [meter]: 0.0051613

# Number of marks in y-dimension (rows)
r 27

# Number of marks in x-dimension (columns)
c 31

# offset of coordinate system in z-dimension [meter] (optional):
z 0

# rim of the calibration plate (min x, max y, max x, min y) [meter]:
o -0.083871125 0.0645592449151841 0.086451775 -0.0645592449151841

# polarity of the marks (light or dark):
p light

# number of finder pattern marks:
f 5

# position of the finder patterns (central mark):  x y [index]
15 13
6 6
24 6
6 20
24 20

# calibration marks:  x y radius [meter]

# calibration marks at y = -0.0581076 m
-0.07483885 -0.0581076199151841 0.001290325
-0.06967755 -0.0581076199151841 0.001290325
-0.06451625 -0.0581076199151841 0.001290325
-0.05935495 -0.0581076199151841 0.001290325
-0.05419365 -0.0581076199151841 0.001290325
-0.04903235 -0.0581076199151841 0.001290325
-0.04387105 -0.0581076199151841 0.001290325
-0.03870975 -0.0581076199151841 0.001290325
-0.03354845 -0.0581076199151841 0.001290325
-0.02838715 -0.0581076199151841 0.001290325
-0.02322585 -0.0581076199151841 0.001290325
-0.01806455 -0.0581076199151841 0.001290325
-0.01290325 -0.0581076199151841 0.001290325
-0.00774195 -0.0581076199151841 0.001290325
-0.00258065 -0.0581076199151841 0.001290325
0.00258065 -0.0581076199151841 0.001290325
0.00774195 -0.0581076199151841 0.001290325
0.01290325 -0.0581076199151841 0.001290325
0.01806455 -0.0581076199151841 0.001290325
0.02322585 -0.0581076199151841 0.001290325
0.02838715 -0.0581076199151841 0.001290325
0.03354845 -0.0581076199151841 0.001290325
0.03870975 -0.0581076199151841 0.001290325
0.04387105 -0.0581076199151841 0.001290325
0.04903235 -0.0581076199151841 0.001290325
0.05419365 -0.0581076199151841 0.001290325
0.05935495 -0.0581076199151841 0.001290325
0.06451625 -0.0581076199151841 0.001290325
0.06967755 -0.0581076199151841 0.001290325
0.07483885 -0.0581076199151841 0.001290325
0.08000015 -0.0581076199151841 0.001290325

# calibration marks at y = -0.0536378 m
-0.0774195 -0.0536378029986315 0.001290325
-0.0722582 -0.0536378029986315 0.001290325
-0.0670969 -0.0536378029986315 0.001290325
-0.0619356 -0.0536378029986315 0.001290325
-0.0567743 -0.0536378029986315 0.001290325
-0.051613 -0.0536378029986315 0.001290325
-0.0464517 -0.0536378029986315 0.001290325
-0.0412904 -0.0536378029986315 0.001290325
-0.0361291 -0.0536378029986315 0.001290325
-0.0309678 -0.0536378029986315 0.001290325
-0.0258065 -0.0536378029986315 0.001290325
-0.0206452 -0.0536378029986315 0.001290325
-0.0154839 -0.0536378029986315 0.001290325
-0.0103226 -0.0536378029986315 0.001290325
-0.0051613 -0.0536378029986315 0.001290325
0 -0.0536378029986315 0.001290325
0.0051613 -0.0536378029986315 0.001290325
0.0103226 -0.0536378029986315 0.001290325
0.0154839 -0.0536378029986315 0.001290325
0.0206452 -0.0536378029986315 0.001290325
0.0258065 -0.0536378029986315 0.001290325
0.0309678 -0.0536378029986315 0.001290325
0.0361291 -0.0536378029986315 0.001290325
0.0412904 -0.0536378029986315 0.001290325
0.0464517 -0.0536378029986315 0.001290325
0.051613 -0.0536378029986315 0.001290325
0.0567743 -0.0536378029986315 0.001290325
0.0619356 -0.0536378029986315 0.001290325
0.0670969 -0.0536378029986315 0.001290325
0.0722582 -0.0536378029986315 0.001290325
0.0774195 -0.0536378029986315 0.001290325

# calibration marks at y = -0.049168 m
-0.07483885 -0.0491679860820788 0.001290325
-0.06967755 -0.0491679860820788 0.001290325
-0.06451625 -0.0491679860820788 0.001290325
-0.05935495 -0.0491679860820788 0.001290325
-0.05419365 -0.0491679860820788 0.001290325
-0.04903235 -0.0491679860820788 0.001290325
-0.04387105 -0.0491679860820788 0.001290325
-0.03870975 -0.0491679860820788 0.001290325
-0.03354845 -0.0491679860820788 0.001290325
-0.02838715 -0.0491679860820788 0.001290325
-0.02322585 -0.0491679860820788 0.001290325
-0.01806455 -0.0491679860820788 0.001290325
-0.01290325 -0.0491679860820788 0.001290325
-0.00774195 -0.0491679860820788 0.001290325
-0.00258065 -0.0491679860820788 0.001290325
0.00258065 -0.0491679860820788 0.001290325
0.00774195 -0.0491679860820788 0.001290325
0.01290325 -0.0491679860820788 0.001290325
0.01806455 -0.0491679860820788 0.001290325
0.02322585 -0.0491679860820788 0.001290325
0.02838715 -0.0491679860820788 0.001290325
0.03354845 -0.0491679860820788 0.001290325
0.03870975 -0.0491679860820788 0.001290325
0.04387105 -0.0491679860820788 0.001290325
0.04903235 -0.0491679860820788 0.001290325
0.05419365 -0.0491679860820788 0.001290325
0.05935495 -0.0491679860820788 0.001290325
0.06451625 -0.0491679860820788 0.001290325
0.06967755 -0.0491679860820788 0.001290325
0.07483885 -0.0491679860820788 0.001290325
0.08000015 -0.0491679860820788 0.001290325

# calibration marks at y = -0.0446982 m
-0.0774195 -0.0446981691655262 0.001290325
-0.0722582 -0.0446981691655262 0.001290325
-0.0670969 -0.0446981691655262 0.001290325
-0.0619356 -0.0446981691655262 0.001290325
-0.0567743 -0.0446981691655262 0.001290325
-0.051613 -0.0446981691655262 0.001290325
-0.0464517 -0.0446981691655262 0.001290325
-0.0412904 -0.0446981691655262 0.001290325
-0.0361291 -0.0446981691655262 0.001290325
-0.0309678 -0.0446981691655262 0.001290325
-0.0258065 -0.0446981691655262 0.001290325
-0.0206452 -0.0446981691655262 0.001290325
-0.0154839 -0.0446981691655262 0.001290325
-0.0103226 -0.0446981691655262 0.001290325
-0.0051613 -0.0446981691655262 0.001290325
0 -0.0446981691655262 0.001290325
0.0051613 -0.0446981691655262 0.001290325
0.0103226 -0.0446981691655262 0.001290325
0.0154839 -0.0446981691655262 0.001290325
0.0206452 -0.0446981691655262 0.001290325
0.0258065 -0.0446981691655262 0.001290325
0.0309678 -0.0446981691655262 0.001290325
0.0361291 -0.0446981691655262 0.001290325
0.0412904 -0.0446981691655262 0.001290325
0.0464517 -0.0446981691655262 0.001290325
0.051613 -0.0446981691655262 0.001290325
0.0567743 -0.0446981691655262 0.001290325
0.0619356 -0.0446981691655262 0.001290325
0.0670969 -0.0446981691655262 0.001290325
0.0722582 -0.0446981691655262 0.001290325
0.0774195 -0.0446981691655262 0.001290325

# calibration marks at y = -0.0402284 m
-0.07483885 -0.0402283522489736 0.001290325
-0.06967755 -0.0402283522489736 0.001290325
-0.06451625 -0.0402283522489736 0.001290325
-0.05935495 -0.0402283522489736 0.001290325
-0.05419365 -0.0402283522489736 0.001290325
-0.04903235 -0.0402283522489736 0.001290325
-0.04387105 -0.0402283522489736 0.001290325
-0.03870975 -0.0402283522489736 0.001290325
-0.03354845 -0.0402283522489736 0.001290325
-0.02838715 -0.0402283522489736 0.001290325
-0.02322585 -0.0402283522489736 0.001290325
-0.01806455 -0.0402283522489736 0.001290325
-0.01290325 -0.0402283522489736 0.001290325
-0.00774195 -0.0402283522489736 0.001290325
-0.00258065 -0.0402283522489736 0.001290325
0.00258065 -0.0402283522489736 0.001290325
0.00774195 -0.0402283522489736 0.001290325
0.01290325 -0.0402283522489736 0.001290325
0.01806455 -0.0402283522489736 0.001290325
0.02322585 -0.0402283522489736 0.001290325
0.02838715 -0.0402283522489736 0.001290325
0.03354845 -0.0402283522489736 0.001290325
0.03870975 -0.0402283522489736 0.001290325
0.04387105 -0.0402283522489736 0.001290325
0.04903235 -0.0402283522489736 0.001290325
0.05419365 -0.0402283522489736 0.001290325
0.05935495 -0.0402283522489736 0.001290325
0.06451625 -0.0402283522489736 0.001290325
0.06967755 -0.0402283522489736 0.001290325
0.07483885 -0.0402283522489736 0.001290325
0.08000015 -0.0402283522489736 0.001290325

# calibration marks at y = -0.0357585 m
-0.0774195 -0.035758535332421 0.001290325
-0.0722582 -0.035758535332421 0.001290325
-0.0670969 -0.035758535332421 0.001290325
-0.0619356 -0.035758535332421 0.001290325
-0.0567743 -0.035758535332421 0.001290325
-0.051613 -0.035758535332421 0.001290325
-0.0464517 -0.035758535332421 0.001290325
-0.0412904 -0.035758535332421 0.001290325
-0.0361291 -0.035758535332421 0.001290325
-0.0309678 -0.035758535332421 0.001290325
-0.0258065 -0.035758535332421 0.001290325
-0.0206452 -0.035758535332421 0.001290325
-0.0154839 -0.035758535332421 0.001290325
-0.0103226 -0.035758535332421 0.001290325
-0.0051613 -0.035758535332421 0.001290325
0 -0.035758535332421 0.001290325
0.0051613 -0.035758535332421 0.001290325
0.0103226 -0.035758535332421 0.001290325
0.0154839 -0.035758535332421 0.001290325
0.0206452 -0.035758535332421 0.001290325
0.0258065 -0.035758535332421 0.001290325
0.0309678 -0.035758535332421 0.001290325
0.0361291 -0.035758535332421 0.001290325
0.0412904 -0.035758535332421 0.001290325
0.0464517 -0.035758535332421 0.001290325
0.051613 -0.035758535332421 0.001290325
0.0567743 -0.035758535332421 0.001290325
0.0619356 -0.035758535332421 0.001290325
0.0670969 -0.035758535332421 0.001290325
0.0722582 -0.035758535332421 0.001290325
0.0774195 -0.035758535332421 0.001290325

# calibration marks at y = -0.0312887 m
-0.07483885 -0.0312887184158684 0.001290325
-0.06967755 -0.0312887184158684 0.001290325
-0.06451625 -0.0312887184158684 0.001290325
-0.05935495 -0.0312887184158684 0.001290325
-0.05419365 -0.0312887184158684 0.001290325
-0.04903235 -0.0312887184158684 0.001290325
-0.04387105 -0.0312887184158684 0.001290325
-0.03870975 -0.0312887184158684 0.001290325
-0.03354845 -0.0312887184158684 0.001290325
-0.02838715 -0.0312887184158684 0.001290325
-0.02322585 -0.0312887184158684 0.001290325
-0.01806455 -0.0312887184158684 0.001290325
-0.01290325 -0.0312887184158684 0.001290325
-0.00774195 -0.0312887184158684 0.001290325
-0.00258065 -0.0312887184158684 0.001290325
0.00258065 -0.0312887184158684 0.001290325
0.00774195 -0.0312887184158684 0.001290325
0.01290325 -0.0312887184158684 0.001290325
0.01806455 -0.0312887184158684 0.001290325
0.02322585 -0.0312887184158684 0.001290325
0.02838715 -0.0312887184158684 0.001290325
0.03354845 -0.0312887184158684 0.001290325
0.03870975 -0.0312887184158684 0.001290325
0.04387105 -0.0312887184158684 0.001290325
0.04903235 -0.0312887184158684 0.001290325
0.05419365 -0.0312887184158684 0.001290325
0.05935495 -0.0312887184158684 0.001290325
0.06451625 -0.0312887184158684 0.001290325
0.06967755 -0.0312887184158684 0.001290325
0.07483885 -0.0312887184158684 0.001290325
0.08000015 -0.0312887184158684 0.001290325

# calibration marks at y = -0.0268189 m
-0.0774195 -0.0268189014993157 0.001290325
-0.0722582 -0.0268189014993157 0.001290325
-0.0670969 -0.0268189014993157 0.001290325
-0.0619356 -0.0268189014993157 0.001290325
-0.0567743 -0.0268189014993157 0.001290325
-0.051613 -0.0268189014993157 0.001290325
-0.0464517 -0.0268189014993157 0.001290325
-0.0412904 -0.0268189014993157 0.001290325
-0.0361291 -0.0268189014993157 0.001290325
-0.0309678 -0.0268189014993157 0.001290325
-0.0258065 -0.0268189014993157 0.001290325
-0.0206452 -0.0268189014993157 0.001290325
-0.0154839 -0.0268189014993157 0.001290325
-0.0103226 -0.0268189014993157 0.001290325
-0.0051613 -0.0268189014993157 0.001290325
0 -0.0268189014993157 0.001290325
0.0051613 -0.0268189014993157 0.001290325
0.0103226 -0.0268189014993157 0.001290325
0.0154839 -0.0268189014993157 0.001290325
0.0206452 -0.0268189014993157 0.001290325
0.0258065 -0.0268189014993157 0.001290325
0.0309678 -0.0268189014993157 0.001290325
0.0361291 -0.0268189014993157 0.001290325
0.0412904 -0.0268189014993157 0.001290325
0.0464517 -0.0268189014993157 0.001290325
0.051613 -0.0268189014993157 0.001290325
0.0567743 -0.0268189014993157 0.001290325
0.0619356 -0.0268189014993157 0.001290325
0.0670969 -0.0268189014993157 0.001290325
0.0722582 -0.0268189014993157 0.001290325
0.0774195 -0.0268189014993157 0.001290325

# calibration marks at y = -0.0223491 m
-0.07483885 -0.0223490845827631 0.001290325
-0.06967755 -0.0223490845827631 0.001290325
-0.06451625 -0.0223490845827631 0.001290325
-0.05935495 -0.0223490845827631 0.001290325
-0.05419365 -0.0223490845827631 0.001290325
-0.04903235 -0.0223490845827631 0.001290325
-0.04387105 -0.0223490845827631 0.001290325
-0.03870975 -0.0223490845827631 0.001290325
-0.03354845 -0.0223490845827631 0.001290325
-0.02838715 -0.0223490845827631 0.001290325
-0.02322585 -0.0223490845827631 0.001290325
-0.01806455 -0.0223490845827631 0.001290325
-0.01290325 -0.0223490845827631 0.001290325
-0.00774195 -0.0223490845827631 0.001290325
-0.00258065 -0.0223490845827631 0.001290325
0.00258065 -0.0223490845827631 0.001290325
0.00774195 -0.0223490845827631 0.001290325
0.01290325 -0.0223490845827631 0.001290325
0.01806455 -0.0223490845827631 0.001290325
0.02322585 -0.0223490845827631 0.001290325
0.02838715 -0.0223490845827631 0.001290325
0.03354845 -0.0223490845827631 0.001290325
0.03870975 -0.0223490845827631 0.001290325
0.04387105 -0.0223490845827631 0.001290325
0.04903235 -0.0223490845827631 0.001290325
0.05419365 -0.0223490845827631 0.001290325
0.05935495 -0.0223490845827631 0.001290325
0.06451625 -0.0223490845827631 0.001290325
0.06967755 -0.0223490845827631 0.001290325
0.07483885 -0.0223490845827631 0.001290325
0.08000015 -0.0223490845827631 0.001290325

# calibration marks at y = -0.0178793 m
-0.0774195 -0.0178792676662105 0.001290325
-0.0722582 -0.0178792676662105 0.001290325
-0.0670969 -0.0178792676662105 0.001290325
-0.0619356 -0.0178792676662105 0.001290325
-0.0567743 -0.0178792676662105 0.001290325
-0.051613 -0.0178792676662105 0.001290325
-0.0464517 -0.0178792676662105 0.001290325
-0.0412904 -0.0178792676662105 0.001290325
-0.0361291 -0.0178792676662105 0.001290325
-0.0309678 -0.0178792676662105 0.001290325
-0.0258065 -0.0178792676662105 0.001290325
-0.0206452 -0.0178792676662105 0.001290325
-0.0154839 -0.0178792676662105 0.001290325
-0.0103226 -0.0178792676662105 0.001290325
-0.0051613 -0.0178792676662105 0.001290325
0 -0.0178792676662105 0.001290325
0.0051613 -0.0178792676662105 0.001290325
0.0103226 -0.0178792676662105 0.001290325
0.0154839 -0.0178792676662105 0.001290325
0.0206452 -0.0178792676662105 0.001290325
0.0258065 -0.0178792676662105 0.001290325
0.0309678 -0.0178792676662105 0.001290325
0.0361291 -0.0178792676662105 0.001290325
0.0412904 -0.0178792676662105 0.001290325
0.0464517 -0.0178792676662105 0.001290325
0.051613 -0.0178792676662105 0.001290325
0.0567743 -0.0178792676662105 0.001290325
0.0619356 -0.0178792676662105 0.001290325
0.0670969 -0.0178792676662105 0.001290325
0.0722582 -0.0178792676662105 0.001290325
0.0774195 -0.0178792676662105 0.001290325

# calibration marks at y = -0.0134095 m
-0.07483885 -0.0134094507496579 0.001290325
-0.06967755 -0.0134094507496579 0.001290325
-0.06451625 -0.0134094507496579 0.001290325
-0.05935495 -0.0134094507496579 0.001290325
-0.05419365 -0.0134094507496579 0.001290325
-0.04903235 -0.0134094507496579 0.001290325
-0.04387105 -0.0134094507496579 0.001290325
-0.03870975 -0.0134094507496579 0.001290325
-0.03354845 -0.0134094507496579 0.001290325
-0.02838715 -0.0134094507496579 0.001290325
-0.02322585 -0.0134094507496579 0.001290325
-0.01806455 -0.0134094507496579 0.001290325
-0.01290325 -0.0134094507496579 0.001290325
-0.00774195 -0.0134094507496579 0.001290325
-0.00258065 -0.0134094507496579 0.001290325
0.00258065 -0.0134094507496579 0.001290325
0.00774195 -0.0134094507496579 0.001290325
0.01290325 -0.0134094507496579 0.001290325
0.01806455 -0.0134094507496579 0.001290325
0.02322585 -0.0134094507496579 0.001290325
0.02838715 -0.0134094507496579 0.001290325
0.03354845 -0.0134094507496579 0.001290325
0.03870975 -0.0134094507496579 0.001290325
0.04387105 -0.0134094507496579 0.001290325
0.04903235 -0.0134094507496579 0.001290325
0.05419365 -0.0134094507496579 0.001290325
0.05935495 -0.0134094507496579 0.001290325
0.06451625 -0.0134094507496579 0.001290325
0.06967755 -0.0134094507496579 0.001290325
0.07483885 -0.0134094507496579 0.001290325
0.08000015 -0.0134094507496579 0.001290325

# calibration marks at y = -0.00893963 m
-0.0774195 -0.00893963383310525 0.001290325
-0.0722582 -0.00893963383310525 0.001290325
-0.0670969 -0.00893963383310525 0.001290325
-0.0619356 -0.00893963383310525 0.001290325
-0.0567743 -0.00893963383310525 0.001290325
-0.051613 -0.00893963383310525 0.001290325
-0.0464517 -0.00893963383310525 0.001290325
-0.0412904 -0.00893963383310525 0.001290325
-0.0361291 -0.00893963383310525 0.001290325
-0.0309678 -0.00893963383310525 0.001290325
-0.0258065 -0.00893963383310525 0.001290325
-0.0206452 -0.00893963383310525 0.001290325
-0.0154839 -0.00893963383310525 0.001290325
-0.0103226 -0.00893963383310525 0.001290325
-0.0051613 -0.00893963383310525 0.001290325
0 -0.00893963383310525 0.001290325
0.0051613 -0.00893963383310525 0.001290325
0.0103226 -0.00893963383310525 0.001290325
0.0154839 -0.00893963383310525 0.001290325
0.0206452 -0.00893963383310525 0.001290325
0.0258065 -0.00893963383310525 0.001290325
0.0309678 -0.00893963383310525 0.001290325
0.0361291 -0.00893963383310525 0.001290325
0.0412904 -0.00893963383310525 0.001290325
0.0464517 -0.00893963383310525 0.001290325
0.051613 -0.00893963383310525 0.001290325
0.0567743 -0.00893963383310525 0.001290325
0.0619356 -0.00893963383310525 0.001290325
0.0670969 -0.00893963383310525 0.001290325
0.0722582 -0.00893963383310525 0.001290325
0.0774195 -0.00893963383310525 0.001290325

# calibration marks at y = -0.00446982 m
-0.07483885 -0.00446981691655262 0.001290325
-0.06967755 -0.00446981691655262 0.001290325
-0.06451625 -0.00446981691655262 0.001290325
-0.05935495 -0.00446981691655262 0.001290325
-0.05419365 -0.00446981691655262 0.001290325
-0.04903235 -0.00446981691655262 0.001290325
-0.04387105 -0.00446981691655262 0.001290325
-0.03870975 -0.00446981691655262 0.001290325
-0.03354845 -0.00446981691655262 0.001290325
-0.02838715 -0.00446981691655262 0.001290325
-0.02322585 -0.00446981691655262 0.001290325
-0.01806455 -0.00446981691655262 0.001290325
-0.01290325 -0.00446981691655262 0.001290325
-0.00774195 -0.00446981691655262 0.001290325
-0.00258065 -0.00446981691655262 0.001290325
0.00258065 -0.00446981691655262 0.001290325
0.00774195 -0.00446981691655262 0.001290325
0.01290325 -0.00446981691655262 0.001290325
0.01806455 -0.00446981691655262 0.001290325
0.02322585 -0.00446981691655262 0.001290325
0.02838715 -0.00446981691655262 0.001290325
0.03354845 -0.00446981691655262 0.001290325
0.03870975 -0.00446981691655262 0.001290325
0.04387105 -0.00446981691655262 0.001290325
0.04903235 -0.00446981691655262 0.001290325
0.05419365 -0.00446981691655262 0.001290325
0.05935495 -0.00446981691655262 0.001290325
0.06451625 -0.00446981691655262 0.001290325
0.06967755 -0.00446981691655262 0.001290325
0.07483885 -0.00446981691655262 0.001290325
0.08000015 -0.00446981691655262 0.001290325

# calibration marks at y = 0 m
-0.0774195 0 0.001290325
-0.0722582 0 0.001290325
-0.0670969 0 0.001290325
-0.0619356 0 0.001290325
-0.0567743 0 0.001290325
-0.051613 0 0.001290325
-0.0464517 0 0.001290325
-0.0412904 0 0.001290325
-0.0361291 0 0.001290325
-0.0309678 0 0.001290325
-0.0258065 0 0.001290325
-0.0206452 0 0.001290325
-0.0154839 0 0.001290325
-0.0103226 0 0.001290325
-0.0051613 0 0.001290325
0 0 0.001290325
0.0051613 0 0.001290325
0.0103226 0 0.001290325
0.0154839 0 0.001290325
0.0206452 0 0.001290325
0.0258065 0 0.001290325
0.0309678 0 0.001290325
0.0361291 0 0.001290325
0.0412904 0 0.001290325
0.0464517 0 0.001290325
0.051613 0 0.001290325
0.0567743 0 0.001290325
0.0619356 0 0.001290325
0.0670969 0 0.001290325
0.0722582 0 0.001290325
0.0774195 0 0.001290325

# calibration marks at y = 0.00446982 m
-0.07483885 0.00446981691655262 0.001290325
-0.06967755 0.00446981691655262 0.001290325
-0.06451625 0.00446981691655262 0.001290325
-0.05935495 0.00446981691655262 0.001290325
-0.05419365 0.00446981691655262 0.001290325
-0.04903235 0.00446981691655262 0.001290325
-0.04387105 0.00446981691655262 0.001290325
-0.03870975 0.00446981691655262 0.001290325
-0.03354845 0.00446981691655262 0.001290325
-0.02838715 0.00446981691655262 0.001290325
-0.02322585 0.00446981691655262 0.001290325
-0.01806455 0.00446981691655262 0.001290325
-0.01290325 0.00446981691655262 0.001290325
-0.00774195 0.00446981691655262 0.001290325
-0.00258065 0.00446981691655262 0.001290325
0.00258065 0.00446981691655262 0.001290325
0.00774195 0.00446981691655262 0.001290325
0.01290325 0.00446981691655262 0.001290325
0.01806455 0.00446981691655262 0.001290325
0.02322585 0.00446981691655262 0.001290325
0.02838715 0.00446981691655262 0.001290325
0.03354845 0.00446981691655262 0.001290325
0.03870975 0.00446981691655262 0.001290325
0.04387105 0.00446981691655262 0.001290325
0.04903235 0.00446981691655262 0.001290325
0.05419365 0.00446981691655262 0.001290325
0.05935495 0.00446981691655262 0.001290325
0.06451625 0.00446981691655262 0.001290325
0.06967755 0.00446981691655262 0.001290325
0.07483885 0.00446981691655262 0.001290325
0.08000015 0.00446981691655262 0.001290325

# calibration marks at y = 0.00893963 m
-0.0774195 0.00893963383310525 0.001290325
-0.0722582 0.00893963383310525 0.001290325
-0.0670969 0.00893963383310525 0.001290325
-0.0619356 0.00893963383310525 0.001290325
-0.0567743 0.00893963383310525 0.001290325
-0.051613 0.00893963383310525 0.001290325
-0.0464517 0.00893963383310525 0.001290325
-0.0412904 0.00893963383310525 0.001290325
-0.0361291 0.00893963383310525 0.001290325
-0.0309678 0.00893963383310525 0.001290325
-0.0258065 0.00893963383310525 0.001290325
-0.0206452 0.00893963383310525 0.001290325
-0.0154839 0.00893963383310525 0.001290325
-0.0103226 0.00893963383310525 0.001290325
-0.0051613 0.00893963383310525 0.001290325
0 0.00893963383310525 0.001290325
0.0051613 0.00893963383310525 0.001290325
0.0103226 0.00893963383310525 0.001290325
0.0154839 0.00893963383310525 0.001290325
0.0206452 0.00893963383310525 0.001290325
0.0258065 0.00893963383310525 0.001290325
0.0309678 0.00893963383310525 0.001290325
0.0361291 0.00893963383310525 0.001290325
0.0412904 0.00893963383310525 0.001290325
0.0464517 0.00893963383310525 0.001290325
0.051613 0.00893963383310525 0.001290325
0.0567743 0.00893963383310525 0.001290325
0.0619356 0.00893963383310525 0.001290325
0.0670969 0.00893963383310525 0.001290325
0.0722582 0.00893963383310525 0.001290325
0.0774195 0.00893963383310525 0.001290325

# calibration marks at y = 0.0134095 m
-0.07483885 0.0134094507496579 0.001290325
-0.06967755 0.0134094507496579 0.001290325
-0.06451625 0.0134094507496579 0.001290325
-0.05935495 0.0134094507496579 0.001290325
-0.05419365 0.0134094507496579 0.001290325
-0.04903235 0.0134094507496579 0.001290325
-0.04387105 0.0134094507496579 0.001290325
-0.03870975 0.0134094507496579 0.001290325
-0.03354845 0.0134094507496579 0.001290325
-0.02838715 0.0134094507496579 0.001290325
-0.02322585 0.0134094507496579 0.001290325
-0.01806455 0.0134094507496579 0.001290325
-0.01290325 0.0134094507496579 0.001290325
-0.00774195 0.0134094507496579 0.001290325
-0.00258065 0.0134094507496579 0.001290325
0.00258065 0.0134094507496579 0.001290325
0.00774195 0.0134094507496579 0.001290325
0.01290325 0.0134094507496579 0.001290325
0.01806455 0.0134094507496579 0.001290325
0.02322585 0.0134094507496579 0.001290325
0.02838715 0.0134094507496579 0.001290325
0.03354845 0.0134094507496579 0.001290325
0.03870975 0.0134094507496579 0.001290325
0.04387105 0.0134094507496579 0.001290325
0.04903235 0.0134094507496579 0.001290325
0.05419365 0.0134094507496579 0.001290325
0.05935495 0.0134094507496579 0.001290325
0.06451625 0.0134094507496579 0.001290325
0.06967755 0.0134094507496579 0.001290325
0.07483885 0.0134094507496579 0.001290325
0.08000015 0.0134094507496579 0.001290325

# calibration marks at y = 0.0178793 m
-0.0774195 0.0178792676662105 0.001290325
-0.0722582 0.0178792676662105 0.001290325
-0.0670969 0.0178792676662105 0.001290325
-0.0619356 0.0178792676662105 0.001290325
-0.0567743 0.0178792676662105 0.001290325
-0.051613 0.0178792676662105 0.001290325
-0.0464517 0.0178792676662105 0.001290325
-0.0412904 0.0178792676662105 0.001290325
-0.0361291 0.0178792676662105 0.001290325
-0.0309678 0.0178792676662105 0.001290325
-0.0258065 0.0178792676662105 0.001290325
-0.0206452 0.0178792676662105 0.001290325
-0.0154839 0.0178792676662105 0.001290325
-0.0103226 0.0178792676662105 0.001290325
-0.0051613 0.0178792676662105 0.001290325
0 0.0178792676662105 0.001290325
0.0051613 0.0178792676662105 0.001290325
0.0103226 0.0178792676662105 0.001290325
0.0154839 0.0178792676662105 0.001290325
0.0206452 0.0178792676662105 0.001290325
0.0258065 0.0178792676662105 0.001290325
0.0309678 0.0178792676662105 0.001290325
0.0361291 0.0178792676662105 0.001290325
0.0412904 0.0178792676662105 0.001290325
0.0464517 0.0178792676662105 0.001290325
0.051613 0.0178792676662105 0.001290325
0.0567743 0.0178792676662105 0.001290325
0.0619356 0.0178792676662105 0.001290325
0.0670969 0.0178792676662105 0.001290325
0.0722582 0.0178792676662105 0.001290325
0.0774195 0.0178792676662105 0.001290325

# calibration marks at y = 0.0223491 m
-0.07483885 0.0223490845827631 0.001290325
-0.06967755 0.0223490845827631 0.001290325
-0.06451625 0.0223490845827631 0.001290325
-0.05935495 0.0223490845827631 0.001290325
-0.05419365 0.0223490845827631 0.001290325
-0.04903235 0.0223490845827631 0.001290325
-0.04387105 0.0223490845827631 0.001290325
-0.03870975 0.0223490845827631 0.001290325
-0.03354845 0.0223490845827631 0.001290325
-0.02838715 0.0223490845827631 0.001290325
-0.02322585 0.0223490845827631 0.001290325
-0.01806455 0.0223490845827631 0.001290325
-0.01290325 0.0223490845827631 0.001290325
-0.00774195 0.0223490845827631 0.001290325
-0.00258065 0.0223490845827631 0.001290325
0.00258065 0.0223490845827631 0.001290325
0.00774195 0.0223490845827631 0.001290325
0.01290325 0.0223490845827631 0.001290325
0.01806455 0.0223490845827631 0.001290325
0.02322585 0.0223490845827631 0.001290325
0.02838715 0.0223490845827631 0.001290325
0.03354845 0.0223490845827631 0.001290325
0.03870975 0.0223490845827631 0.001290325
0.04387105 0.0223490845827631 0.001290325
0.04903235 0.0223490845827631 0.001290325
0.05419365 0.0223490845827631 0.001290325
0.05935495 0.0223490845827631 0.001290325
0.06451625 0.0223490845827631 0.001290325
0.06967755 0.0223490845827631 0.001290325
0.07483885 0.0223490845827631 0.001290325
0.08000015 0.0223490845827631 0.001290325

# calibration marks at y = 0.0268189 m
-0.0774195 0.0268189014993157 0.001290325
-0.0722582 0.0268189014993157 0.001290325
-0.0670969 0.0268189014993157 0.001290325
-0.0619356 0.0268189014993157 0.001290325
-0.0567743 0.0268189014993157 0.001290325
-0.051613 0.0268189014993157 0.001290325
-0.0464517 0.0268189014993157 0.001290325
-0.0412904 0.0268189014993157 0.001290325
-0.0361291 0.0268189014993157 0.001290325
-0.0309678 0.0268189014993157 0.001290325
-0.0258065 0.0268189014993157 0.001290325
-0.0206452 0.0268189014993157 0.001290325
-0.0154839 0.0268189014993157 0.001290325
-0.0103226 0.0268189014993157 0.001290325
-0.0051613 0.0268189014993157 0.001290325
0 0.0268189014993157 0.001290325
0.0051613 0.0268189014993157 0.001290325
0.0103226 0.0268189014993157 0.001290325
0.0154839 0.0268189014993157 0.001290325
0.0206452 0.0268189014993157 0.001290325
0.0258065 0.0268189014993157 0.001290325
0.0309678 0.0268189014993157 0.001290325
0.0361291 0.0268189014993157 0.001290325
0.0412904 0.0268189014993157 0.001290325
0.0464517 0.0268189014993157 0.001290325
0.051613 0.0268189014993157 0.001290325
0.0567743 0.0268189014993157 0.001290325
0.0619356 0.0268189014993157 0.001290325
0.0670969 0.0268189014993157 0.001290325
0.0722582 0.0268189014993157 0.001290325
0.0774195 0.0268189014993157 0.001290325

# calibration marks at y = 0.0312887 m
-0.07483885 0.0312887184158684 0.001290325
-0.06967755 0.0312887184158684 0.001290325
-0.06451625 0.0312887184158684 0.001290325
-0.05935495 0.0312887184158684 0.001290325
-0.05419365 0.0312887184158684 0.001290325
-0.04903235 0.0312887184158684 0.001290325
-0.04387105 0.0312887184158684 0.001290325
-0.03870975 0.0312887184158684 0.001290325
-0.03354845 0.0312887184158684 0.001290325
-0.02838715 0.0312887184158684 0.001290325
-0.02322585 0.0312887184158684 0.001290325
-0.01806455 0.0312887184158684 0.001290325
-0.01290325 0.0312887184158684 0.001290325
-0.00774195 0.0312887184158684 0.001290325
-0.00258065 0.0312887184158684 0.001290325
0.00258065 0.0312887184158684 0.001290325
0.00774195 0.0312887184158684 0.001290325
0.01290325 0.0312887184158684 0.001290325
0.01806455 0.0312887184158684 0.001290325
0.02322585 0.0312887184158684 0.001290325
0.02838715 0.0312887184158684 0.001290325
0.03354845 0.0312887184158684 0.001290325
0.03870975 0.0312887184158684 0.001290325
0.04387105 0.0312887184158684 0.001290325
0.04903235 0.0312887184158684 0.001290325
0.05419365 0.0312887184158684 0.001290325
0.05935495 0.0312887184158684 0.001290325
0.06451625 0.0312887184158684 0.001290325
0.06967755 0.0312887184158684 0.001290325
0.07483885 0.0312887184158684 0.001290325
0.08000015 0.0312887184158684 0.001290325

# calibration marks at y = 0.0357585 m
-0.0774195 0.035758535332421 0.001290325
-0.0722582 0.035758535332421 0.001290325
-0.0670969 0.035758535332421 0.001290325
-0.0619356 0.035758535332421 0.001290325
-0.0567743 0.035758535332421 0.001290325
-0.051613 0.035758535332421 0.001290325
-0.0464517 0.035758535332421 0.001290325
-0.0412904 0.035758535332421 0.001290325
-0.0361291 0.035758535332421 0.001290325
-0.0309678 0.035758535332421 0.001290325
-0.0258065 0.035758535332421 0.001290325
-0.0206452 0.035758535332421 0.001290325
-0.0154839 0.035758535332421 0.001290325
-0.0103226 0.035758535332421 0.001290325
-0.0051613 0.035758535332421 0.001290325
0 0.035758535332421 0.001290325
0.0051613 0.035758535332421 0.001290325
0.0103226 0.035758535332421 0.001290325
0.0154839 0.035758535332421 0.001290325
0.0206452 0.035758535332421 0.001290325
0.0258065 0.035758535332421 0.001290325
0.0309678 0.035758535332421 0.001290325
0.0361291 0.035758535332421 0.001290325
0.0412904 0.035758535332421 0.001290325
0.0464517 0.035758535332421 0.001290325