# Plate Description Version 3
# HALCON Version 12.0 --  Fri Jul 04 14:17:19 2014
# Description of the standard calibration plate
# used for the camera calibration in HALCON
# (generated by create_caltab)
#
#

# 27 rows x 31 columns
# Width, height of calibration plate [meter]: 0.167742, 0.125846
# Distance between mark centers [meter]: 0.00516129

# Number of marks in y-dimension (rows)
r 27

# Number of marks in x-dimension (columns)
c 31

# offset of coordinate system in z-dimension [meter] (optional):
z 0

# rim of the calibration plate (min x, max y, max x, min y) [meter]:
o -0.0838709677419355 0.0645591238668269 0.0864516129032258 -0.0645591238668269

# polarity of the marks (light or dark):
p light

# number of finder pattern marks:
f 5

# position of the finder patterns (central mark):  x y [index]
15 13
6 6
24 6
6 20
24 20

# calibration marks:  x y radius [meter]

# calibration marks at y = -0.0581075 m
-0.0748387096774194 -0.058107510963601 0.00129032258064516
-0.0696774193548387 -0.058107510963601 0.00129032258064516
-0.0645161290322581 -0.058107510963601 0.00129032258064516
-0.0593548387096774 -0.058107510963601 0.00129032258064516
-0.0541935483870968 -0.058107510963601 0.00129032258064516
-0.0490322580645161 -0.058107510963601 0.00129032258064516
-0.0438709677419355 -0.058107510963601 0.00129032258064516
-0.0387096774193548 -0.058107510963601 0.00129032258064516
-0.0335483870967742 -0.058107510963601 0.00129032258064516
-0.0283870967741936 -0.058107510963601 0.00129032258064516
-0.0232258064516129 -0.058107510963601 0.00129032258064516
-0.0180645161290323 -0.058107510963601 0.00129032258064516
-0.0129032258064516 -0.058107510963601 0.00129032258064516
-0.00774193548387097 -0.058107510963601 0.00129032258064516
-0.00258064516129032 -0.058107510963601 0.00129032258064516
0.00258064516129032 -0.058107510963601 0.00129032258064516
0.00774193548387097 -0.058107510963601 0.00129032258064516
0.0129032258064516 -0.058107510963601 0.00129032258064516
0.0180645161290323 -0.058107510963601 0.00129032258064516
0.0232258064516129 -0.058107510963601 0.00129032258064516
0.0283870967741936 -0.058107510963601 0.00129032258064516
0.0335483870967742 -0.058107510963601 0.00129032258064516
0.0387096774193548 -0.058107510963601 0.00129032258064516
0.0438709677419355 -0.058107510963601 0.00129032258064516
0.0490322580645161 -0.058107510963601 0.00129032258064516
0.0541935483870968 -0.058107510963601 0.00129032258064516
0.0593548387096774 -0.058107510963601 0.00129032258064516
0.0645161290322581 -0.058107510963601 0.00129032258064516
0.0696774193548387 -0.058107510963601 0.00129032258064516
0.0748387096774194 -0.058107510963601 0.00129032258064516
0.08 -0.058107510963601 0.00129032258064516

# calibration marks at y = -0.0536377 m
-0.0774193548387097 -0.0536377024279394 0.00129032258064516
-0.072258064516129 -0.0536377024279394 0.00129032258064516
-0.0670967741935484 -0.0536377024279394 0.00129032258064516
-0.0619354838709677 -0.0536377024279394 0.00129032258064516
-0.0567741935483871 -0.0536377024279394 0.00129032258064516
-0.0516129032258065 -0.0536377024279394 0.00129032258064516
-0.0464516129032258 -0.0536377024279394 0.00129032258064516
-0.0412903225806452 -0.0536377024279394 0.00129032258064516
-0.0361290322580645 -0.0536377024279394 0.00129032258064516
-0.0309677419354839 -0.0536377024279394 0.00129032258064516
-0.0258064516129032 -0.0536377024279394 0.00129032258064516
-0.0206451612903226 -0.0536377024279394 0.00129032258064516
-0.0154838709677419 -0.0536377024279394 0.00129032258064516
-0.0103225806451613 -0.0536377024279394 0.00129032258064516
-0.00516129032258065 -0.0536377024279394 0.00129032258064516
0 -0.0536377024279394 0.00129032258064516
0.00516129032258065 -0.0536377024279394 0.00129032258064516
0.0103225806451613 -0.0536377024279394 0.00129032258064516
0.0154838709677419 -0.0536377024279394 0.00129032258064516
0.0206451612903226 -0.0536377024279394 0.00129032258064516
0.0258064516129032 -0.0536377024279394 0.00129032258064516
0.0309677419354839 -0.0536377024279394 0.00129032258064516
0.0361290322580645 -0.0536377024279394 0.00129032258064516
0.0412903225806452 -0.0536377024279394 0.00129032258064516
0.0464516129032258 -0.0536377024279394 0.00129032258064516
0.0516129032258065 -0.0536377024279394 0.00129032258064516
0.0567741935483871 -0.0536377024279394 0.00129032258064516
0.0619354838709677 -0.0536377024279394 0.00129032258064516
0.0670967741935484 -0.0536377024279394 0.00129032258064516
0.072258064516129 -0.0536377024279394 0.00129032258064516
0.0774193548387097 -0.0536377024279394 0.00129032258064516

# calibration marks at y = -0.0491679 m
-0.0748387096774194 -0.0491678938922778 0.00129032258064516
-0.0696774193548387 -0.0491678938922778 0.00129032258064516
-0.0645161290322581 -0.0491678938922778 0.00129032258064516
-0.0593548387096774 -0.0491678938922778 0.00129032258064516
-0.0541935483870968 -0.0491678938922778 0.00129032258064516
-0.0490322580645161 -0.0491678938922778 0.00129032258064516
-0.0438709677419355 -0.0491678938922778 0.00129032258064516
-0.0387096774193548 -0.0491678938922778 0.00129032258064516
-0.0335483870967742 -0.0491678938922778 0.00129032258064516
-0.0283870967741936 -0.0491678938922778 0.00129032258064516
-0.0232258064516129 -0.0491678938922778 0.00129032258064516
-0.0180645161290323 -0.0491678938922778 0.00129032258064516
-0.0129032258064516 -0.0491678938922778 0.00129032258064516
-0.00774193548387097 -0.0491678938922778 0.00129032258064516
-0.00258064516129032 -0.0491678938922778 0.00129032258064516
0.00258064516129032 -0.0491678938922778 0.00129032258064516
0.00774193548387097 -0.0491678938922778 0.00129032258064516
0.0129032258064516 -0.0491678938922778 0.00129032258064516
0.0180645161290323 -0.0491678938922778 0.00129032258064516
0.0232258064516129 -0.0491678938922778 0.00129032258064516
0.0283870967741936 -0.0491678938922778 0.00129032258064516
0.0335483870967742 -0.0491678938922778 0.00129032258064516
0.0387096774193548 -0.0491678938922778 0.00129032258064516
0.0438709677419355 -0.0491678938922778 0.00129032258064516
0.0490322580645161 -0.0491678938922778 0.00129032258064516
0.0541935483870968 -0.0491678938922778 0.00129032258064516
0.0593548387096774 -0.0491678938922778 0.00129032258064516
0.0645161290322581 -0.0491678938922778 0.00129032258064516
0.0696774193548387 -0.0491678938922778 0.00129032258064516
0.0748387096774194 -0.0491678938922778 0.00129032258064516
0.08 -0.0491678938922778 0.00129032258064516

# calibration marks at y = -0.0446981 m
-0.0774193548387097 -0.0446980853566162 0.00129032258064516
-0.072258064516129 -0.0446980853566162 0.00129032258064516
-0.0670967741935484 -0.0446980853566162 0.00129032258064516
-0.0619354838709677 -0.0446980853566162 0.00129032258064516
-0.0567741935483871 -0.0446980853566162 0.00129032258064516
-0.0516129032258065 -0.0446980853566162 0.00129032258064516
-0.0464516129032258 -0.0446980853566162 0.00129032258064516
-0.0412903225806452 -0.0446980853566162 0.00129032258064516
-0.0361290322580645 -0.0446980853566162 0.00129032258064516
-0.0309677419354839 -0.0446980853566162 0.00129032258064516
-0.0258064516129032 -0.0446980853566162 0.00129032258064516
-0.0206451612903226 -0.0446980853566162 0.00129032258064516
-0.0154838709677419 -0.0446980853566162 0.00129032258064516
-0.0103225806451613 -0.0446980853566162 0.00129032258064516
-0.00516129032258065 -0.0446980853566162 0.00129032258064516
0 -0.0446980853566162 0.00129032258064516
0.00516129032258065 -0.0446980853566162 0.00129032258064516
0.0103225806451613 -0.0446980853566162 0.00129032258064516
0.0154838709677419 -0.0446980853566162 0.00129032258064516
0.0206451612903226 -0.0446980853566162 0.00129032258064516
0.0258064516129032 -0.0446980853566162 0.00129032258064516
0.0309677419354839 -0.0446980853566162 0.00129032258064516
0.0361290322580645 -0.0446980853566162 0.00129032258064516
0.0412903225806452 -0.0446980853566162 0.00129032258064516
0.0464516129032258 -0.0446980853566162 0.00129032258064516
0.0516129032258065 -0.0446980853566162 0.00129032258064516
0.0567741935483871 -0.0446980853566162 0.00129032258064516
0.0619354838709677 -0.0446980853566162 0.00129032258064516
0.0670967741935484 -0.0446980853566162 0.00129032258064516
0.072258064516129 -0.0446980853566162 0.00129032258064516
0.0774193548387097 -0.0446980853566162 0.00129032258064516

# calibration marks at y = -0.0402283 m
-0.0748387096774194 -0.0402282768209546 0.00129032258064516
-0.0696774193548387 -0.0402282768209546 0.00129032258064516
-0.0645161290322581 -0.0402282768209546 0.00129032258064516
-0.0593548387096774 -0.0402282768209546 0.00129032258064516
-0.0541935483870968 -0.0402282768209546 0.00129032258064516
-0.0490322580645161 -0.0402282768209546 0.00129032258064516
-0.0438709677419355 -0.0402282768209546 0.00129032258064516
-0.0387096774193548 -0.0402282768209546 0.00129032258064516
-0.0335483870967742 -0.0402282768209546 0.00129032258064516
-0.0283870967741936 -0.0402282768209546 0.00129032258064516
-0.0232258064516129 -0.0402282768209546 0.00129032258064516
-0.0180645161290323 -0.0402282768209546 0.00129032258064516
-0.0129032258064516 -0.0402282768209546 0.00129032258064516
-0.00774193548387097 -0.0402282768209546 0.00129032258064516
-0.00258064516129032 -0.0402282768209546 0.00129032258064516
0.00258064516129032 -0.0402282768209546 0.00129032258064516
0.00774193548387097 -0.0402282768209546 0.00129032258064516
0.0129032258064516 -0.0402282768209546 0.00129032258064516
0.0180645161290323 -0.0402282768209546 0.00129032258064516
0.0232258064516129 -0.0402282768209546 0.00129032258064516
0.0283870967741936 -0.0402282768209546 0.00129032258064516
0.0335483870967742 -0.0402282768209546 0.00129032258064516
0.0387096774193548 -0.0402282768209546 0.00129032258064516
0.0438709677419355 -0.0402282768209546 0.00129032258064516
0.0490322580645161 -0.0402282768209546 0.00129032258064516
0.0541935483870968 -0.0402282768209546 0.00129032258064516
0.0593548387096774 -0.0402282768209546 0.00129032258064516
0.0645161290322581 -0.0402282768209546 0.00129032258064516
0.0696774193548387 -0.0402282768209546 0.00129032258064516
0.0748387096774194 -0.0402282768209546 0.00129032258064516
0.08 -0.0402282768209546 0.00129032258064516

# calibration marks at y = -0.0357585 m
-0.0774193548387097 -0.035758468285293 0.00129032258064516
-0.072258064516129 -0.035758468285293 0.00129032258064516
-0.0670967741935484 -0.035758468285293 0.00129032258064516
-0.0619354838709677 -0.035758468285293 0.00129032258064516
-0.0567741935483871 -0.035758468285293 0.00129032258064516
-0.0516129032258065 -0.035758468285293 0.00129032258064516
-0.0464516129032258 -0.035758468285293 0.00129032258064516
-0.0412903225806452 -0.035758468285293 0.00129032258064516
-0.0361290322580645 -0.035758468285293 0.00129032258064516
-0.0309677419354839 -0.035758468285293 0.00129032258064516
-0.0258064516129032 -0.035758468285293 0.00129032258064516
-0.0206451612903226 -0.035758468285293 0.00129032258064516
-0.0154838709677419 -0.035758468285293 0.00129032258064516
-0.0103225806451613 -0.035758468285293 0.00129032258064516
-0.00516129032258065 -0.035758468285293 0.00129032258064516
0 -0.035758468285293 0.00129032258064516
0.00516129032258065 -0.035758468285293 0.00129032258064516
0.0103225806451613 -0.035758468285293 0.00129032258064516
0.0154838709677419 -0.035758468285293 0.00129032258064516
0.0206451612903226 -0.035758468285293 0.00129032258064516
0.0258064516129032 -0.035758468285293 0.00129032258064516
0.0309677419354839 -0.035758468285293 0.00129032258064516
0.0361290322580645 -0.035758468285293 0.00129032258064516
0.0412903225806452 -0.035758468285293 0.00129032258064516
0.0464516129032258 -0.035758468285293 0.00129032258064516
0.0516129032258065 -0.035758468285293 0.00129032258064516
0.0567741935483871 -0.035758468285293 0.00129032258064516
0.0619354838709677 -0.035758468285293 0.00129032258064516
0.0670967741935484 -0.035758468285293 0.00129032258064516
0.072258064516129 -0.035758468285293 0.00129032258064516
0.0774193548387097 -0.035758468285293 0.00129032258064516

# calibration marks at y = -0.0312887 m
-0.0748387096774194 -0.0312886597496313 0.00129032258064516
-0.0696774193548387 -0.0312886597496313 0.00129032258064516
-0.0645161290322581 -0.0312886597496313 0.00129032258064516
-0.0593548387096774 -0.0312886597496313 0.00129032258064516
-0.0541935483870968 -0.0312886597496313 0.00129032258064516
-0.0490322580645161 -0.0312886597496313 0.00129032258064516
-0.0438709677419355 -0.0312886597496313 0.00129032258064516
-0.0387096774193548 -0.0312886597496313 0.00129032258064516
-0.0335483870967742 -0.0312886597496313 0.00129032258064516
-0.0283870967741936 -0.0312886597496313 0.00129032258064516
-0.0232258064516129 -0.0312886597496313 0.00129032258064516
-0.0180645161290323 -0.0312886597496313 0.00129032258064516
-0.0129032258064516 -0.0312886597496313 0.00129032258064516
-0.00774193548387097 -0.0312886597496313 0.00129032258064516
-0.00258064516129032 -0.0312886597496313 0.00129032258064516
0.00258064516129032 -0.0312886597496313 0.00129032258064516
0.00774193548387097 -0.0312886597496313 0.00129032258064516
0.0129032258064516 -0.0312886597496313 0.00129032258064516
0.0180645161290323 -0.0312886597496313 0.00129032258064516
0.0232258064516129 -0.0312886597496313 0.00129032258064516
0.0283870967741936 -0.0312886597496313 0.00129032258064516
0.0335483870967742 -0.0312886597496313 0.00129032258064516
0.0387096774193548 -0.0312886597496313 0.00129032258064516
0.0438709677419355 -0.0312886597496313 0.00129032258064516
0.0490322580645161 -0.0312886597496313 0.00129032258064516
0.0541935483870968 -0.0312886597496313 0.00129032258064516
0.0593548387096774 -0.0312886597496313 0.00129032258064516
0.0645161290322581 -0.0312886597496313 0.00129032258064516
0.0696774193548387 -0.0312886597496313 0.00129032258064516
0.0748387096774194 -0.0312886597496313 0.00129032258064516
0.08 -0.0312886597496313 0.00129032258064516

# calibration marks at y = -0.0268189 m
-0.0774193548387097 -0.0268188512139697 0.00129032258064516
-0.072258064516129 -0.0268188512139697 0.00129032258064516
-0.0670967741935484 -0.0268188512139697 0.00129032258064516
-0.0619354838709677 -0.0268188512139697 0.00129032258064516
-0.0567741935483871 -0.0268188512139697 0.00129032258064516
-0.0516129032258065 -0.0268188512139697 0.00129032258064516
-0.0464516129032258 -0.0268188512139697 0.00129032258064516
-0.0412903225806452 -0.0268188512139697 0.00129032258064516
-0.0361290322580645 -0.0268188512139697 0.00129032258064516
-0.0309677419354839 -0.0268188512139697 0.00129032258064516
-0.0258064516129032 -0.0268188512139697 0.00129032258064516
-0.0206451612903226 -0.0268188512139697 0.00129032258064516
-0.0154838709677419 -0.0268188512139697 0.00129032258064516
-0.0103225806451613 -0.0268188512139697 0.00129032258064516
-0.00516129032258065 -0.0268188512139697 0.00129032258064516
0 -0.0268188512139697 0.00129032258064516
0.00516129032258065 -0.0268188512139697 0.00129032258064516
0.0103225806451613 -0.0268188512139697 0.00129032258064516
0.0154838709677419 -0.0268188512139697 0.00129032258064516
0.0206451612903226 -0.0268188512139697 0.00129032258064516
0.0258064516129032 -0.0268188512139697 0.00129032258064516
0.0309677419354839 -0.0268188512139697 0.00129032258064516
0.0361290322580645 -0.0268188512139697 0.00129032258064516
0.0412903225806452 -0.0268188512139697 0.00129032258064516
0.0464516129032258 -0.0268188512139697 0.00129032258064516
0.0516129032258065 -0.0268188512139697 0.00129032258064516
0.0567741935483871 -0.0268188512139697 0.00129032258064516
0.0619354838709677 -0.0268188512139697 0.00129032258064516
0.0670967741935484 -0.0268188512139697 0.00129032258064516
0.072258064516129 -0.0268188512139697 0.00129032258064516
0.0774193548387097 -0.0268188512139697 0.00129032258064516

# calibration marks at y = -0.022349 m
-0.0748387096774194 -0.0223490426783081 0.00129032258064516
-0.0696774193548387 -0.0223490426783081 0.00129032258064516
-0.0645161290322581 -0.0223490426783081 0.00129032258064516
-0.0593548387096774 -0.0223490426783081 0.00129032258064516
-0.0541935483870968 -0.0223490426783081 0.00129032258064516
-0.0490322580645161 -0.0223490426783081 0.00129032258064516
-0.0438709677419355 -0.0223490426783081 0.00129032258064516
-0.0387096774193548 -0.0223490426783081 0.00129032258064516
-0.0335483870967742 -0.0223490426783081 0.00129032258064516
-0.0283870967741936 -0.0223490426783081 0.00129032258064516
-0.0232258064516129 -0.0223490426783081 0.00129032258064516
-0.0180645161290323 -0.0223490426783081 0.00129032258064516
-0.0129032258064516 -0.0223490426783081 0.00129032258064516
-0.00774193548387097 -0.0223490426783081 0.00129032258064516
-0.00258064516129032 -0.0223490426783081 0.00129032258064516
0.00258064516129032 -0.0223490426783081 0.00129032258064516
0.00774193548387097 -0.0223490426783081 0.00129032258064516
0.0129032258064516 -0.0223490426783081 0.00129032258064516
0.0180645161290323 -0.0223490426783081 0.00129032258064516
0.0232258064516129 -0.0223490426783081 0.00129032258064516
0.0283870967741936 -0.0223490426783081 0.00129032258064516
0.0335483870967742 -0.0223490426783081 0.00129032258064516
0.0387096774193548 -0.0223490426783081 0.00129032258064516
0.0438709677419355 -0.0223490426783081 0.00129032258064516
0.0490322580645161 -0.0223490426783081 0.00129032258064516
0.0541935483870968 -0.0223490426783081 0.00129032258064516
0.0593548387096774 -0.0223490426783081 0.00129032258064516
0.0645161290322581 -0.0223490426783081 0.00129032258064516
0.0696774193548387 -0.0223490426783081 0.00129032258064516
0.0748387096774194 -0.0223490426783081 0.00129032258064516
0.08 -0.0223490426783081 0.00129032258064516

# calibration marks at y = -0.0178792 m
-0.0774193548387097 -0.0178792341426465 0.00129032258064516
-0.072258064516129 -0.0178792341426465 0.00129032258064516
-0.0670967741935484 -0.0178792341426465 0.00129032258064516
-0.0619354838709677 -0.0178792341426465 0.00129032258064516
-0.0567741935483871 -0.0178792341426465 0.00129032258064516
-0.0516129032258065 -0.0178792341426465 0.00129032258064516
-0.0464516129032258 -0.0178792341426465 0.00129032258064516
-0.0412903225806452 -0.0178792341426465 0.00129032258064516
-0.0361290322580645 -0.0178792341426465 0.00129032258064516
-0.0309677419354839 -0.0178792341426465 0.00129032258064516
-0.0258064516129032 -0.0178792341426465 0.00129032258064516
-0.0206451612903226 -0.0178792341426465 0.00129032258064516
-0.0154838709677419 -0.0178792341426465 0.00129032258064516
-0.0103225806451613 -0.0178792341426465 0.00129032258064516
-0.00516129032258065 -0.0178792341426465 0.00129032258064516
0 -0.0178792341426465 0.00129032258064516
0.00516129032258065 -0.0178792341426465 0.00129032258064516
0.0103225806451613 -0.0178792341426465 0.00129032258064516
0.0154838709677419 -0.0178792341426465 0.00129032258064516
0.0206451612903226 -0.0178792341426465 0.00129032258064516
0.0258064516129032 -0.0178792341426465 0.00129032258064516
0.0309677419354839 -0.0178792341426465 0.00129032258064516
0.0361290322580645 -0.0178792341426465 0.00129032258064516
0.0412903225806452 -0.0178792341426465 0.00129032258064516
0.0464516129032258 -0.0178792341426465 0.00129032258064516
0.0516129032258065 -0.0178792341426465 0.00129032258064516
0.0567741935483871 -0.0178792341426465 0.00129032258064516
0.0619354838709677 -0.0178792341426465 0.00129032258064516
0.0670967741935484 -0.0178792341426465 0.00129032258064516
0.072258064516129 -0.0178792341426465 0.00129032258064516
0.0774193548387097 -0.0178792341426465 0.00129032258064516

# calibration marks at y = -0.0134094 m
-0.0748387096774194 -0.0134094256069849 0.00129032258064516
-0.0696774193548387 -0.0134094256069849 0.00129032258064516
-0.0645161290322581 -0.0134094256069849 0.00129032258064516
-0.0593548387096774 -0.0134094256069849 0.00129032258064516
-0.0541935483870968 -0.0134094256069849 0.00129032258064516
-0.0490322580645161 -0.0134094256069849 0.00129032258064516
-0.0438709677419355 -0.0134094256069849 0.00129032258064516
-0.0387096774193548 -0.0134094256069849 0.00129032258064516
-0.0335483870967742 -0.0134094256069849 0.00129032258064516
-0.0283870967741936 -0.0134094256069849 0.00129032258064516
-0.0232258064516129 -0.0134094256069849 0.00129032258064516
-0.0180645161290323 -0.0134094256069849 0.00129032258064516
-0.0129032258064516 -0.0134094256069849 0.00129032258064516
-0.00774193548387097 -0.0134094256069849 0.00129032258064516
-0.00258064516129032 -0.0134094256069849 0.00129032258064516
0.00258064516129032 -0.0134094256069849 0.00129032258064516
0.00774193548387097 -0.0134094256069849 0.00129032258064516
0.0129032258064516 -0.0134094256069849 0.00129032258064516
0.0180645161290323 -0.0134094256069849 0.00129032258064516
0.0232258064516129 -0.0134094256069849 0.00129032258064516
0.0283870967741936 -0.0134094256069849 0.00129032258064516
0.0335483870967742 -0.0134094256069849 0.00129032258064516
0.0387096774193548 -0.0134094256069849 0.00129032258064516
0.0438709677419355 -0.0134094256069849 0.00129032258064516
0.0490322580645161 -0.0134094256069849 0.00129032258064516
0.0541935483870968 -0.0134094256069849 0.00129032258064516
0.0593548387096774 -0.0134094256069849 0.00129032258064516
0.0645161290322581 -0.0134094256069849 0.00129032258064516
0.0696774193548387 -0.0134094256069849 0.00129032258064516
0.0748387096774194 -0.0134094256069849 0.00129032258064516
0.08 -0.0134094256069849 0.00129032258064516

# calibration marks at y = -0.00893962 m
-0.0774193548387097 -0.00893961707132324 0.00129032258064516
-0.072258064516129 -0.00893961707132324 0.00129032258064516
-0.0670967741935484 -0.00893961707132324 0.00129032258064516
-0.0619354838709677 -0.00893961707132324 0.00129032258064516
-0.0567741935483871 -0.00893961707132324 0.00129032258064516
-0.0516129032258065 -0.00893961707132324 0.00129032258064516
-0.0464516129032258 -0.00893961707132324 0.00129032258064516
-0.0412903225806452 -0.00893961707132324 0.00129032258064516
-0.0361290322580645 -0.00893961707132324 0.00129032258064516
-0.0309677419354839 -0.00893961707132324 0.00129032258064516
-0.0258064516129032 -0.00893961707132324 0.00129032258064516
-0.0206451612903226 -0.00893961707132324 0.00129032258064516
-0.0154838709677419 -0.00893961707132324 0.00129032258064516
-0.0103225806451613 -0.00893961707132324 0.00129032258064516
-0.00516129032258065 -0.00893961707132324 0.00129032258064516
0 -0.00893961707132324 0.00129032258064516
0.00516129032258065 -0.00893961707132324 0.00129032258064516
0.0103225806451613 -0.00893961707132324 0.00129032258064516
0.0154838709677419 -0.00893961707132324 0.00129032258064516
0.0206451612903226 -0.00893961707132324 0.00129032258064516
0.0258064516129032 -0.00893961707132324 0.00129032258064516
0.0309677419354839 -0.00893961707132324 0.00129032258064516
0.0361290322580645 -0.00893961707132324 0.00129032258064516
0.0412903225806452 -0.00893961707132324 0.00129032258064516
0.0464516129032258 -0.00893961707132324 0.00129032258064516
0.0516129032258065 -0.00893961707132324 0.00129032258064516
0.0567741935483871 -0.00893961707132324 0.00129032258064516
0.0619354838709677 -0.00893961707132324 0.00129032258064516
0.0670967741935484 -0.00893961707132324 0.00129032258064516
0.072258064516129 -0.00893961707132324 0.00129032258064516
0.0774193548387097 -0.00893961707132324 0.00129032258064516

# calibration marks at y = -0.00446981 m
-0.0748387096774194 -0.00446980853566162 0.00129032258064516
-0.0696774193548387 -0.00446980853566162 0.00129032258064516
-0.0645161290322581 -0.00446980853566162 0.00129032258064516
-0.0593548387096774 -0.00446980853566162 0.00129032258064516
-0.0541935483870968 -0.00446980853566162 0.00129032258064516
-0.0490322580645161 -0.00446980853566162 0.00129032258064516
-0.0438709677419355 -0.00446980853566162 0.00129032258064516
-0.0387096774193548 -0.00446980853566162 0.00129032258064516
-0.0335483870967742 -0.00446980853566162 0.00129032258064516
-0.0283870967741936 -0.00446980853566162 0.00129032258064516
-0.0232258064516129 -0.00446980853566162 0.00129032258064516
-0.0180645161290323 -0.00446980853566162 0.00129032258064516
-0.0129032258064516 -0.00446980853566162 0.00129032258064516
-0.00774193548387097 -0.00446980853566162 0.00129032258064516
-0.00258064516129032 -0.00446980853566162 0.00129032258064516
0.00258064516129032 -0.00446980853566162 0.00129032258064516
0.00774193548387097 -0.00446980853566162 0.00129032258064516
0.0129032258064516 -0.00446980853566162 0.00129032258064516
0.0180645161290323 -0.00446980853566162 0.00129032258064516
0.0232258064516129 -0.00446980853566162 0.00129032258064516
0.0283870967741936 -0.00446980853566162 0.00129032258064516
0.0335483870967742 -0.00446980853566162 0.00129032258064516
0.0387096774193548 -0.00446980853566162 0.00129032258064516
0.0438709677419355 -0.00446980853566162 0.00129032258064516
0.0490322580645161 -0.00446980853566162 0.00129032258064516
0.0541935483870968 -0.00446980853566162 0.00129032258064516
0.0593548387096774 -0.00446980853566162 0.00129032258064516
0.0645161290322581 -0.00446980853566162 0.00129032258064516
0.0696774193548387 -0.00446980853566162 0.00129032258064516
0.0748387096774194 -0.00446980853566162 0.00129032258064516
0.08 -0.00446980853566162 0.00129032258064516

# calibration marks at y = 0 m
-0.0774193548387097 0 0.00129032258064516
-0.072258064516129 0 0.00129032258064516
-0.0670967741935484 0 0.00129032258064516
-0.0619354838709677 0 0.00129032258064516
-0.0567741935483871 0 0.00129032258064516
-0.0516129032258065 0 0.00129032258064516
-0.0464516129032258 0 0.00129032258064516
-0.0412903225806452 0 0.00129032258064516
-0.0361290322580645 0 0.00129032258064516
-0.0309677419354839 0 0.00129032258064516
-0.0258064516129032 0 0.00129032258064516
-0.0206451612903226 0 0.00129032258064516
-0.0154838709677419 0 0.00129032258064516
-0.0103225806451613 0 0.00129032258064516
-0.00516129032258065 0 0.00129032258064516
0 0 0.00129032258064516
0.00516129032258065 0 0.00129032258064516
0.0103225806451613 0 0.00129032258064516
0.0154838709677419 0 0.00129032258064516
0.0206451612903226 0 0.00129032258064516
0.0258064516129032 0 0.00129032258064516
0.0309677419354839 0 0.00129032258064516
0.0361290322580645 0 0.00129032258064516
0.0412903225806452 0 0.00129032258064516
0.0464516129032258 0 0.00129032258064516
0.0516129032258065 0 0.00129032258064516
0.0567741935483871 0 0.00129032258064516
0.0619354838709677 0 0.00129032258064516
0.0670967741935484 0 0.00129032258064516
0.072258064516129 0 0.00129032258064516
0.0774193548387097 0 0.00129032258064516

# calibration marks at y = 0.00446981 m
-0.0748387096774194 0.00446980853566162 0.00129032258064516
-0.0696774193548387 0.00446980853566162 0.00129032258064516
-0.0645161290322581 0.00446980853566162 0.00129032258064516
-0.0593548387096774 0.00446980853566162 0.00129032258064516
-0.0541935483870968 0.00446980853566162 0.00129032258064516
-0.0490322580645161 0.00446980853566162 0.00129032258064516
-0.0438709677419355 0.00446980853566162 0.00129032258064516
-0.0387096774193548 0.00446980853566162 0.00129032258064516
-0.0335483870967742 0.00446980853566162 0.00129032258064516
-0.0283870967741936 0.00446980853566162 0.00129032258064516
-0.0232258064516129 0.00446980853566162 0.00129032258064516
-0.0180645161290323 0.00446980853566162 0.00129032258064516
-0.0129032258064516 0.00446980853566162 0.00129032258064516
-0.00774193548387097 0.00446980853566162 0.00129032258064516
-0.00258064516129032 0.00446980853566162 0.00129032258064516
0.00258064516129032 0.00446980853566162 0.00129032258064516
0.00774193548387097 0.00446980853566162 0.00129032258064516
0.0129032258064516 0.00446980853566162 0.00129032258064516
0.0180645161290323 0.00446980853566162 0.00129032258064516
0.0232258064516129 0.00446980853566162 0.00129032258064516
0.0283870967741936 0.00446980853566162 0.00129032258064516
0.0335483870967742 0.00446980853566162 0.00129032258064516
0.0387096774193548 0.00446980853566162 0.00129032258064516
0.0438709677419355 0.00446980853566162 0.00129032258064516
0.0490322580645161 0.00446980853566162 0.00129032258064516
0.0541935483870968 0.00446980853566162 0.00129032258064516
0.0593548387096774 0.00446980853566162 0.00129032258064516
0.0645161290322581 0.00446980853566162 0.00129032258064516
0.0696774193548387 0.00446980853566162 0.00129032258064516
0.0748387096774194 0.00446980853566162 0.00129032258064516
0.08 0.00446980853566162 0.00129032258064516

# calibration marks at y = 0.00893962 m
-0.0774193548387097 0.00893961707132324 0.00129032258064516
-0.072258064516129 0.00893961707132324 0.00129032258064516
-0.0670967741935484 0.00893961707132324 0.00129032258064516
-0.0619354838709677 0.00893961707132324 0.00129032258064516
-0.0567741935483871 0.00893961707132324 0.00129032258064516
-0.0516129032258065 0.00893961707132324 0.00129032258064516
-0.0464516129032258 0.00893961707132324 0.00129032258064516
-0.0412903225806452 0.00893961707132324 0.00129032258064516
-0.0361290322580645 0.00893961707132324 0.00129032258064516
-0.0309677419354839 0.00893961707132324 0.00129032258064516
-0.0258064516129032 0.00893961707132324 0.00129032258064516
-0.0206451612903226 0.00893961707132324 0.00129032258064516
-0.0154838709677419 0.00893961707132324 0.00129032258064516
-0.0103225806451613 0.00893961707132324 0.00129032258064516
-0.00516129032258065 0.00893961707132324 0.00129032258064516
0 0.00893961707132324 0.00129032258064516
0.00516129032258065 0.00893961707132324 0.00129032258064516
0.0103225806451613 0.00893961707132324 0.00129032258064516
0.0154838709677419 0.00893961707132324 0.00129032258064516
0.0206451612903226 0.00893961707132324 0.00129032258064516
0.0258064516129032 0.00893961707132324 0.00129032258064516
0.0309677419354839 0.00893961707132324 0.00129032258064516
0.0361290322580645 0.00893961707132324 0.00129032258064516
0.0412903225806452 0.00893961707132324 0.00129032258064516
0.0464516129032258 0.00893961707132324 0.00129032258064516
0.0516129032258065 0.00893961707132324 0.00129032258064516